28
FINAL SINGLE POINT ENERGY      -557.990340071723
C -2.1534266 0.6368432 0.55374587
C -0.31127116 1.3957663 -0.7321627
C 0.6673931 0.8221305 0.029824095
C 1.213017 -0.38565415 -0.34105265
C 2.2882118 -1.1715018 0.48624554
N 3.0370302 -0.4996319 1.4936498
C 4.223185 0.11341503 1.097283
C -3.2477505 1.2026799 -0.16154864
C -3.7602425 0.48228353 -1.1769334
C -3.288369 -0.7766995 -1.5463018
C -2.2334566 -1.3622115 -0.8817929
C -1.789251 -0.7351372 0.27931082
O -1.014123 -1.3334522 1.1280984
H -1.7321761 1.1438546 1.4444954
H -0.5948307 0.95876014 -1.6844242
H -0.4750612 2.4732254 -0.58029866
H 0.98068357 1.1663988 1.002011
H 0.8123787 -0.843504 -1.2178257
H 2.9317856 -1.6784911 -0.1970428
H 1.7070783 -1.900917 1.0845478
H 2.5705807 0.061829835 2.1762154
H 4.53251 0.98832434 1.6802944
H 4.281983 0.32913604 0.026245724
H 5.082684 -0.58724886 1.2487576
H -3.6489697 2.1506567 0.18093814
H -4.57263 0.9504961 -1.7549238
H -3.7184658 -1.2757511 -2.413209
H -1.7884958 -2.3255994 -1.2241467
