28
FINAL SINGLE POINT ENERGY      -557.995724204291
C -1.9735788 0.3165314 1.1633215
C -0.81948936 1.5487814 -0.32288837
C 0.460335 1.54419 0.27569917
C 1.3251061 0.6636737 -0.14781076
C 2.5937192 0.28268218 0.7408518
N 3.4768887 -0.6997482 0.17393066
C 3.8910394 -0.3740993 -1.1353687
C -3.2974105 0.5528417 0.7484813
C -3.88502 -0.31765518 -0.103174105
C -3.2477624 -1.4437305 -0.576983
C -1.9291955 -1.7306613 -0.23062009
C -1.3044319 -0.9628946 0.7106464
O -0.14685366 -1.267476 1.1384287
H -1.565327 0.8333856 2.0590038
H -0.979043 0.9070975 -1.2150484
H -1.365749 2.489735 -0.2313668
H 0.6498238 2.1321275 1.1682876
H 1.3851054 0.2917376 -1.1541276
H 2.2334592 -0.20858863 1.6600357
H 3.193312 1.1735624 0.9656379
H 2.979162 -1.6098236 0.12604485
H 4.35013 0.6134261 -1.169073
H 3.1655254 -0.3801652 -1.9538262
H 4.664729 -1.0984049 -1.4301418
H -3.80633 1.4098998 1.1943734
H -4.894987 -0.04523658 -0.45716876
H -3.7793562 -2.0542696 -1.3037374
H -1.3738016 -2.566918 -0.6934082
