21
-1157.199353 Hartree
 O                 -2.57334100    2.16444600    0.20188700
 C                 -3.17249500    1.16445600   -0.06715800
 C                 -2.56300900   -0.23951500    0.01870500
 O                 -3.19139500   -1.20616600   -0.32208400
 O                 -1.32932800   -0.22747500    0.48607500
 C                 -0.62955100   -1.52731000    0.53418500
 O                  0.61861900   -1.28851700    1.00509000
 S                  1.95423100   -0.53026700   -0.24049800
 O                  2.91942400   -1.41092400    0.33166100
 O                  1.06777100   -0.65010100   -1.35199000
 O                  2.92467200    0.62921300   -0.84466200
 O                  1.44652400    0.83507900    0.99965800
 C                  0.83351600    2.02126000    0.42069400
 H                 -4.21938400    1.15411300   -0.41385600
 H                 -0.65489200   -1.93637000   -0.47447100
 H                 -1.17972000   -2.16282200    1.22986400
 H                  3.76208400    0.56706500   -0.36450100
 H                  0.78143700    0.22072800    1.44391400
 H                  0.25107000    2.48870300    1.20908600
 H                  1.64059300    2.66131800    0.08702500
 H                  0.18268300    1.73820200   -0.40143500

