30
#Cluster:3
C          -2.63670000      2.30730000     -0.66240000
C          -1.53330000      1.68560000     -0.00970000
C          -0.15960000      2.13510000     -0.45590000
O           0.88859653      1.34062424      0.06612408
C           1.93302016      1.04461609     -0.82971197
C           1.45854440      0.10701489     -1.93833684
O           0.81995850      0.45964235     -2.89495455
O           1.81906022     -1.14908136     -1.71575300
C          -1.65858665      1.29735808      1.45034027
O          -1.03512917      0.07374034      1.76657964
C          -1.01682953     -0.78355610      0.70315094
C          -0.59321168     -2.09580279      0.87617649
C          -0.59193544     -2.93799267     -0.22135018
C          -0.99388008     -2.48162211     -1.46777193
C          -1.37985648     -1.15650836     -1.63269451
C          -1.39460000     -0.30520000     -0.54250000
H          -2.28050000      0.90950000     -0.83150000
H          -2.47374317      2.91529057     -1.53001612
H          -3.57677412      2.41691587     -0.15685895
H          -0.03735166      3.16801456     -0.08992150
H          -0.12860643      2.15503733     -1.54960166
H           2.33675377      1.95993919     -1.28566521
H           2.69861741      0.54301005     -0.23670533
H           1.41698348     -1.75277811     -2.36397619
H          -2.72339199      1.24182537      1.72022553
H          -1.17437701      2.06507152      2.06101475
H          -0.27649739     -2.43437435      1.84997832
H          -0.27450855     -3.96389210     -0.10227295
H          -1.00865319     -3.15776287     -2.31172262
H          -1.67286419     -0.79786716     -2.61092092
