30
#Cluster:6
C          -2.63670000      2.30730000     -0.66240000
C          -1.53330000      1.68560000     -0.00970000
C          -0.15960000      2.13510000     -0.45590000
O           0.88775622      1.27368922     -0.05159824
C           1.89413661      1.05365824     -1.00901082
C           1.36990647      0.27616138     -2.21479259
O           0.64674166      0.73610587     -3.05919622
O           1.80456393     -0.97680910     -2.22718877
C          -1.66066365      1.27897587      1.44666574
O          -0.99443958      0.07600609      1.75587838
C          -0.95902115     -0.77488895      0.68652605
C          -0.45546392     -2.06195689      0.83024394
C          -0.42329840     -2.88571694     -0.28131547
C          -0.87503593     -2.43682283     -1.51257987
C          -1.34326577     -1.13568456     -1.64765008
C          -1.39460000     -0.30520000     -0.54250000
H          -2.28050000      0.90950000     -0.83150000
H          -2.47458252      2.91947669     -1.52682511
H          -3.57629817      2.41523348     -0.15483024
H          -0.00012989      3.12650706     -0.00024998
H          -0.16648032      2.25616060     -1.54295058
H           2.31893167      2.00496340     -1.36268164
H           2.65845437      0.46062418     -0.50551060
H           1.39867820     -1.48181720     -2.95231999
H          -2.72609384      1.18060921      1.70207517
H          -1.21403725      2.05590065      2.07399405
H          -0.09500144     -2.39541160      1.79059920
H          -0.03725341     -3.89037798     -0.18661919
H          -0.85984102     -3.09876040     -2.36781849
H          -1.67628107     -0.77875637     -2.61427947
