27
Properties=species:S:1:pos:R:3:forces:R:3 #Cluster:2=T energy=-18427.463674084993 pbc="F F F"
C        2.05707457       0.39221786      -0.08834019      -0.00361232      -0.00716886       0.00102805
O        1.46241717       1.28542200      -0.99687549      -0.00092363       0.00485826       0.00686357
C        2.24983255       1.57103412      -2.08422204       0.00252217       0.00287025      -0.00003704
F        2.39621887       0.44988741      -2.89692085       0.00261738      -0.00461283      -0.00500110
C        1.70706245      -0.97378834      -0.15193540       0.00528726      -0.00586917      -0.01024433
C        2.59298470      -1.96003061       0.51552623      -0.00516870       0.00090644      -0.00049420
C        0.55950839      -1.44819653      -0.96833119      -0.00396076      -0.00056333       0.00999104
C       -0.73955176      -0.83723552      -0.49229346      -0.00235464       0.00095510       0.00072406
C       -1.86126518      -0.70745755      -1.29746915      -0.00206680       0.00191875      -0.00044550
C       -3.03194873      -0.17482361      -0.78281701       0.00044793      -0.00134737      -0.00755762
C       -3.06274448       0.24976844       0.54265058      -0.00053267       0.00166785       0.00716414
C       -1.94427069       0.14230322       1.34919576      -0.00989185      -0.00140488      -0.00279341
C       -0.75981486      -0.40702648       0.84374766       0.02275618       0.00326252       0.00410082
O        0.35575985      -0.51796320       1.55444274      -0.00267014      -0.00168867      -0.00273835
H        3.08554143       0.63459579       0.17697982      -0.00251801       0.00013133       0.00257066
H        1.30797378       0.32023159       0.95864197       0.00027134       0.00421187      -0.00053763
H        1.74423528       2.33944048      -2.66476594       0.00055359       0.00064035       0.00026466
H        3.26350893       1.86587870      -1.79277872      -0.00451157       0.00013722      -0.00120633
H        3.25718313      -1.49038832       1.23837519      -0.00075996       0.00081170       0.00096103
H        3.20578896      -2.41648063      -0.27048966       0.00167819       0.00243483       0.00074103
H        2.01477304      -2.74109411       1.00143004       0.00055892      -0.00063113      -0.00049643
H        0.52171904      -2.53948954      -0.94123911       0.00042706      -0.00027305      -0.00126941
H        0.74552959      -1.13012783      -1.99745914      -0.00158645       0.00051640       0.00122903
H       -1.82131494      -1.03387894      -2.33077642       0.00131760      -0.00116035      -0.00132982
H       -3.91270992      -0.09129410      -1.40555759      -0.00023111      -0.00017922       0.00072843
H       -3.97272608       0.67459076       0.94865493       0.00080261      -0.00006344      -0.00089046
H       -1.95487919       0.49183004       2.37354645       0.00154834      -0.00036043      -0.00132481
