26
#Cluster:7
O          -5.52970000      0.04250000      0.80360000
N          -4.61450000     -0.96470000      0.68350000
O          -4.62580000     -1.32120000     -0.55280000
C          -2.69580000      0.16980000     -0.21430000
C          -1.56577298      1.03340609     -0.49261586
O          -1.74555688      2.19708414     -0.84827129
C          -0.19007606      0.49801501     -0.34336055
C           0.83012312      1.41814646     -0.10834967
C           2.14121164      1.01826359      0.04516088
C           2.45792085     -0.33200830     -0.06212294
O           3.72229397     -0.84208959      0.06034443
C           4.80822935      0.04272154      0.11925799
O           4.88532169      0.75910008      1.30604802
C           1.44626241     -1.26248720     -0.30591167
C           0.13657933     -0.85491473     -0.43665834
H          -5.63204703      0.23727602      1.74594389
H          -3.96600000     -0.68180000     -1.09330000
H          -3.58174264      0.76803828     -0.09813466
H          -2.51632851     -0.79213311      0.22152835
H           0.56856674      2.46358273     -0.03973895
H           2.90243988      1.75043756      0.26139600
H           4.75944822      0.78770945     -0.68553659
H           5.68953049     -0.59929924     -0.02658607
H           4.93591168      0.14660930      2.04985985
H           1.71750114     -2.30276175     -0.39333864
H          -0.62321931     -1.59223063     -0.64687479
