28
FINAL SINGLE POINT ENERGY      -558.000603836449
C -1.7365278 0.85517895 1.1307361
C -0.37481532 1.8638446 -0.3141985
C 0.88807 1.3944105 0.0836734
C 1.4895787 0.47093034 -0.7127674
C 2.849693 -0.08529091 -0.24590884
N 2.7635722 -1.2116588 0.7262354
C 3.1492598 -2.3972485 0.08178778
C -2.9538665 1.4938778 0.79269093
C -3.7435079 0.8983575 -0.11249851
C -3.3740811 -0.28697047 -0.7765692
C -2.1719182 -0.92782885 -0.4915119
C -1.3669393 -0.46143693 0.5033635
O -0.29966086 -1.0571332 0.86822677
H -1.0997065 1.1544033 1.9840165
H -0.745088 1.5077943 -1.2837397
H -0.64450264 2.864383 0.013143086
H 1.4037824 1.7706623 0.9329393
H 0.9647977 0.061400305 -1.5850554
H 3.4731154 0.63938326 0.32096666
H 3.423564 -0.34634033 -1.1356318
H 1.8930477 -1.3885558 1.0978636
H 4.208368 -2.3073456 -0.22825326
H 2.5981717 -2.599055 -0.81778723
H 3.0820334 -3.2574797 0.7787444
H -3.1799378 2.4008985 1.3371849
H -4.6418614 1.4575739 -0.4059645
H -4.0417213 -0.67574424 -1.5249171
H -1.812918 -1.8310107 -1.016769
