28
FINAL SINGLE POINT ENERGY      -558.008006973335
C -1.9240062 0.7580941 0.51872784
C -0.56745654 1.6010802 -1.0477978
C 0.722325 1.4107698 -0.53353757
C 1.4193789 0.3126013 -0.9031705
C 2.76531 -0.018190783 -0.25047538
N 2.7273593 0.091816604 1.232508
C 3.3620076 -1.0661253 1.7936882
C -3.1570833 1.0097064 -0.12148685
C -3.7208562 -0.0027114598 -0.8256717
C -3.0974538 -1.2497925 -0.9569245
C -1.8601002 -1.5139201 -0.39249817
C -1.2819653 -0.57519925 0.41964716
O -0.21934795 -0.83546484 1.0633894
H -1.4571412 1.41343 1.2855324
H -0.87056494 0.9501779 -1.8829287
H -1.0192701 2.583971 -1.0044953
H 1.0804381 2.0194685 0.26726592
H 0.97617644 -0.4096363 -1.5927881
H 3.5535057 0.72708 -0.4883577
H 3.1168492 -0.9625913 -0.61427087
H 1.8280193 0.06074565 1.6933508
H 4.391587 -1.1252178 1.3728815
H 2.9047456 -1.9915136 1.5232289
H 3.455205 -0.99355257 2.8874993
H -3.5944054 1.987777 0.026454039
H -4.624624 0.24664006 -1.3671098
H -3.5957952 -1.9790206 -1.5718175
H -1.3128369 -2.4504223 -0.53084296
