28
FINAL SINGLE POINT ENERGY      -558.006046155120
C -1.7082423 0.79107064 1.1430534
C -0.24176209 1.8938797 -0.36633015
C 1.0064483 1.4410524 0.12918581
C 1.7133235 0.5187388 -0.55360657
C 3.064747 -0.019015165 -0.040630016
N 3.0043213 -1.2787262 0.770757
C 2.4596093 -2.373469 -0.02601463
C -2.9559422 1.3620023 0.72212607
C -3.6528225 0.74042904 -0.27106965
C -3.179338 -0.3874771 -0.9417987
C -1.9635136 -0.95242035 -0.5609361
C -1.2698046 -0.4468141 0.4935583
O -0.15067106 -0.94446707 0.9165719
H -1.1124204 1.0905385 2.0217183
H -0.5435741 1.526211 -1.3592469
H -0.6225406 2.8414497 -0.014583872
H 1.4318988 1.9169278 0.98437893
H 1.2502385 0.09729685 -1.4754103
H 3.5046344 0.7145227 0.65529364
H 3.7428665 -0.24398188 -0.8678863
H 2.3280795 -1.1555073 1.5216745
H 3.044228 -2.4404173 -0.9552609
H 1.3902683 -2.2065625 -0.25981936
H 2.5911968 -3.3208475 0.55189615
H -3.270495 2.2229257 1.280252
H -4.5436845 1.2535672 -0.6463305
H -3.746212 -0.7878962 -1.7592554
H -1.5708374 -1.8530109 -1.0922871
