28
FINAL SINGLE POINT ENERGY      -557.989401925549
C -1.9304444 0.5236447 1.0271676
C -0.6405029 1.272988 -0.8708037
C 0.62746155 0.91356015 -0.48291072
C 1.1631379 -0.21857809 -1.031014
C 2.4551928 -0.8171301 -0.46571675
N 3.6932523 -0.021682061 -0.4123081
C 3.8450265 0.76566964 0.74189323
C -3.271308 0.76329917 0.6080392
C -3.9168286 -0.24824403 -0.017571434
C -3.2921507 -1.4728547 -0.32764542
C -1.999248 -1.7304169 0.049803074
C -1.3601862 -0.8062186 0.8717374
O -0.24341698 -1.0799402 1.4774176
H -1.3602206 1.2519841 1.6621857
H -1.1979134 0.6593449 -1.561969
H -0.8844673 2.3430452 -0.7603825
H 1.142758 1.3668349 0.36094135
H 0.57363445 -0.81033826 -1.6716378
H 2.7005513 -1.6811529 -1.104324
H 2.288439 -1.1384327 0.5530292
H 3.781268 0.4799548 -1.2722428
H 3.9759376 0.09126186 1.6106848
H 3.044834 1.477892 0.94987273
H 4.787454 1.3360415 0.66655177
H -3.739384 1.6962374 0.89904
H -4.9397984 -0.057095986 -0.34944844
H -3.8433766 -2.210956 -0.8999448
H -1.4597024 -2.6487172 -0.25044405
