28
FINAL SINGLE POINT ENERGY      -557.988288132510
C -2.1728985 0.6604452 1.0014116
C -0.46525478 1.4858042 -0.5668942
C 0.64904946 0.99984616 0.080558196
C 1.0623842 -0.2849132 -0.24091639
C 2.2956452 -0.87144357 0.49608544
N 3.4472783 -0.89310694 -0.40531456
C 4.5371118 -0.18137552 0.06973463
C -3.3462954 1.1857735 0.3921602
C -3.9876962 0.43011254 -0.5285545
C -3.5504827 -0.86082643 -0.88691753
C -2.3948865 -1.4054736 -0.31195468
C -1.7713343 -0.71841884 0.7232519
O -0.80073404 -1.1954652 1.4802619
H -1.6519557 1.1400661 1.8502663
H -0.8406447 0.9183734 -1.4371356
H -0.69033366 2.5474212 -0.49340907
H 1.0696602 1.4918877 0.9234224
H 0.7187357 -0.8435956 -1.0539426
H 2.119991 -1.9318204 0.7372999
H 2.4341931 -0.29285523 1.4210501
H 3.3311327 -0.5397506 -1.357912
H 4.9113884 -0.7114144 0.969629
H 4.331469 0.8525846 0.36525232
H 5.358784 -0.19114381 -0.67288613
H -3.7064843 2.13776 0.77054846
H -4.8330307 0.86773443 -1.0401086
H -4.0542192 -1.4077024 -1.6559826
H -2.0005724 -2.388503 -0.629004
