28
FINAL SINGLE POINT ENERGY      -557.825862815268
C -1.9612671 0.60470915 1.0099765
C -0.7487437 1.614581 -0.67157465
C 0.6312134 1.2767373 -0.30515912
C 1.1448814 0.32362384 -1.0414822
C 2.2462502 -0.483575 -0.5392573
N 3.554259 -0.08578074 -0.13285777
C 4.0554943 -0.9067936 0.9517755
C -3.2742894 0.97970295 0.605402
C -3.9579864 0.12011405 -0.2191675
C -3.4053695 -1.0657213 -0.67805713
C -2.1329472 -1.4764837 -0.28505948
C -1.441809 -0.7337383 0.6326567
O -0.24731095 -1.0515214 1.1023102
H -1.3600324 1.1432478 1.7940905
H -1.1792166 1.0322316 -1.5028344
H -1.0587709 2.623202 -0.41814518
H 1.1027391 1.7799889 0.46532568
H 0.7910659 -0.07818606 -1.983715
H 3.4933898 -0.29257455 -1.1368982
H 1.796315 -1.2055557 0.15311104
H 3.6829946 0.9184754 0.12379236
H 3.9948235 -1.9495083 0.65641683
H 3.4552832 -0.76444125 1.8364105
H 5.0758915 -0.6179017 1.1954265
H -3.684235 1.8891494 1.0237632
H -4.934369 0.46445394 -0.563633
H -3.9754877 -1.672243 -1.3598181
H -1.6627669 -2.3861928 -0.7127985
