30
Properties=species:S:1:pos:R:3:forces:R:3 #Cluster:4=T energy=-20289.667134021085 pbc="F F F"
C       -1.55198798      -2.87629512       1.06614726      -0.00018945      -0.00083362       0.00013385
O       -2.13428720      -1.95113600       0.14679637       0.00370876       0.00682046       0.01082471
N       -1.18313313      -1.19538498      -0.53261524       0.00137221      -0.02336739      -0.00414298
C       -0.36604697      -1.98277721      -1.45776437      -0.00676929       0.00909119       0.00420070
C       -0.44402091      -0.14385908       0.40086367       0.01448410       0.02202005      -0.00306556
O       -0.95281181       0.03335268       1.48017066      -0.00686414       0.00330375       0.00065287
C        1.03068329      -0.02759220       0.13801846      -0.00210991      -0.01402065       0.01151006
C        1.85269982      -0.77327089       0.98048920      -0.01361660       0.00234035      -0.00480512
C        3.22859810      -0.73842419       0.82396289      -0.00036705       0.00009034      -0.00020745
C        3.79031426       0.05243871      -0.16914470      -0.00046418      -0.00031584      -0.00029778
C        2.97258842       0.80856589      -0.99523225       0.00540433       0.00213305      -0.00186354
C        1.59274292       0.77147563      -0.84802104      -0.00314278       0.00226712      -0.00518894
O       -1.21773643       1.03742257      -0.92770837      -0.00946926      -0.01470832       0.01932935
C       -1.95072368       2.01527794      -0.26146034       0.00645885       0.03317331       0.01864740
O       -1.10387348       2.92912869       0.39534781      -0.00837641      -0.01075915      -0.00654561
H       -2.39781618      -3.31835042       1.58488128      -0.00219210      -0.00074490      -0.00326190
H       -1.00029899      -3.66049459       0.54375767       0.00000540       0.00018396       0.00170249
H       -0.91549095      -2.36468453       1.78635455       0.00095712       0.00041379      -0.00058628
H        0.38606343      -2.57093634      -0.93331010       0.00161296      -0.00263399      -0.00297828
H       -1.03171286      -2.62933370      -2.02523025      -0.00013523      -0.00285509       0.00153910
H        0.13409523      -1.28987954      -2.12977097       0.00216143      -0.00376103      -0.00176635
H        1.40806648      -1.36672992       1.77036607       0.00626630      -0.00173572       0.00176750
H        3.86157473      -1.31924863       1.48219697       0.00123248       0.00102633      -0.00075570
H        4.86516264       0.08739488      -0.29072752       0.00001424      -0.00109542       0.00100899
H        3.40980996       1.44192555      -1.75604121      -0.00126127      -0.00042103      -0.00035435
H        0.94309606       1.37292519      -1.46596414       0.00036573      -0.00008674       0.00059898
H       -1.63974034      -0.21859658      -1.00514567       0.01126854       0.01069831      -0.03001196
H       -2.52468830       2.59559125      -0.98703796       0.00132170      -0.00812446      -0.00131613
H       -2.63606459       1.55621046       0.46529212      -0.00430122      -0.00714348      -0.00451331
H       -0.76056398       2.47689627       1.17520211       0.00262465      -0.00095523      -0.00025449
