30
#Cluster:1
C          -3.30645038     -1.51177802      0.37522105
O          -2.03357195     -2.06400296      0.09889854
N          -1.15880000     -1.15370000     -0.53080000
C          -0.34820472     -1.88362631     -1.49140329
C          -0.38970000     -0.23760000      0.49750000
O          -0.94418882     -0.03994478      1.54631244
C           1.07163748     -0.16321673      0.25581960
C           1.87882804     -0.89535031      1.12268327
C           3.25432841     -0.85845484      0.98381600
C           3.83131736     -0.08279151     -0.00793127
C           3.02986994      0.65806777     -0.86094217
C           1.65267074      0.61768667     -0.73460096
O          -1.19140000      1.11520000     -0.78990000
C          -1.93799234      2.02511864     -0.11045621
O          -1.37932186      3.30944228     -0.12701212
H          -3.88418419     -2.34175335      0.77661168
H          -3.24413579     -0.71307345      1.11614808
H          -3.78106099     -1.13937162     -0.53913590
H           0.29631123     -2.59980219     -0.98039822
H          -1.00982752     -2.42110470     -2.17042339
H           0.25627180     -1.17635641     -2.05209690
H           1.42009304     -1.48488252      1.90246939
H           3.87623041     -1.43099569      1.65569479
H           4.90585650     -0.04919620     -0.11002689
H           3.47939679      1.27367456     -1.62581323
H           1.01486855      1.20228762     -1.37890225
H          -1.61130000     -0.19520000     -0.95000000
H          -2.93847760      2.13524996     -0.55504596
H          -2.05795388      1.68046348      0.94679709
H          -0.46328872      3.23576150      0.16488323