24
Properties=species:S:1:pos:R:3:forces:R:3 #Cluster:4=T energy=-29988.328115607503 pbc="F F F"
O       -2.99292593      -1.92598897      -0.87618733      -0.01334544      -0.00002953      -0.01886656
N       -2.21150203      -1.84208523       0.11505086       0.02194100       0.00587603       0.00946439
C       -1.34277231      -1.01386436       0.33324953       0.00393562      -0.01438842       0.02558170
O       -1.54955444       0.16704164      -1.14040643      -0.00020025       0.00129020       0.00077803
C       -2.25069887       1.37589529      -0.81224477       0.00593449       0.00022777       0.00807979
C       -1.24945868       2.50274983      -0.72775362       0.00513011      -0.00321470      -0.00351556
O       -1.57528335       3.63872613      -0.53537948      -0.00128048      -0.00067625      -0.00147050
S       -0.21339141      -0.44074958       1.51496941      -0.00832380       0.01743352      -0.02007478
O       -0.53419221       0.96793207       1.81707072      -0.00189906      -0.00606320      -0.00135606
C        1.21224276      -0.41748483       0.42424091      -0.00281395      -0.01767404      -0.00274031
C        1.92397215       0.76314581       0.33089838       0.00078025       0.00033864       0.00152984
C        3.07364631       0.78421257      -0.44915684      -0.00417206       0.00144369       0.00335390
C        3.48943265      -0.36240209      -1.10800438       0.00185466      -0.00037457      -0.00120819
C        2.76426231      -1.54304519      -0.99268876       0.00096203       0.00096770      -0.00123884
C        1.61832736      -1.57797284      -0.21666120      -0.00129390       0.00746457       0.00480126
H       -2.22534476      -0.51349226      -1.44921109      -0.01186880       0.00340685       0.00405894
H       -2.97893051       1.60132454      -1.59356098       0.00518737       0.00115708      -0.00573045
H       -2.77204356       1.28672139       0.14294121      -0.00215973      -0.00318416       0.00031715
H       -0.19613162       2.20071295      -0.87933924      -0.00435350       0.00530038       0.00150582
H        1.57612910       1.64091930       0.85994293       0.00362079       0.00153675      -0.00082485
H        3.64368734       1.69939271      -0.53831865       0.00075366      -0.00065179      -0.00085140
H        4.38541946      -0.33996265      -1.71417792      -0.00035663      -0.00025885       0.00043286
H        3.09258716      -2.43590006      -1.50757767       0.00018885       0.00047589      -0.00024621
H        1.04121636      -2.49007010      -0.11951989       0.00177870      -0.00040350      -0.00177997
