24
Properties=species:S:1:pos:R:3:forces:R:3 #Cluster:5=T energy=-29988.285208855737 pbc="F F F"
O       -2.91859179      -1.92492796      -0.91439116      -0.00368268      -0.00577976      -0.00720328
N       -2.22421141      -1.83151537       0.14127317      -0.00182956      -0.00537450       0.00282290
C       -1.37513132      -1.00189203       0.41861502       0.00265466       0.00666432       0.01532842
O       -1.41467591       0.10859150      -1.13126089       0.00039224       0.00304733      -0.00168593
C       -2.09706218       1.34721942      -0.89221851      -0.00168296       0.00333550      -0.00143340
C       -1.83984510       2.30810527      -2.03264996       0.00741373      -0.00041953       0.00555555
O       -2.35816337       3.38623655      -2.09763507       0.00118841      -0.00131415      -0.00051524
S       -0.24556651      -0.47768765       1.62762068       0.02064144       0.00487091       0.01160398
O       -0.55647475       0.91872418       1.98585251      -0.01548342       0.00297216      -0.01466485
C        1.17357551      -0.43355627       0.53052318      -0.00579883       0.00168114      -0.00624507
C        1.64741391       0.79610470       0.11401261       0.02036927       0.00283378       0.02811857
C        2.76818229       0.83134945      -0.70407290       0.00135088      -0.00114620      -0.00156006
C        3.38987349      -0.34918181      -1.08467939      -0.00102365       0.00146122      -0.00001191
C        2.90426347      -1.57488726      -0.64554215       0.00085203       0.00083514       0.00199267
C        1.78930082      -1.62278929       0.17511460      -0.01372168      -0.00301275      -0.02125050
H       -2.08027170      -0.57028708      -1.47136930      -0.00081318      -0.01173880       0.00424084
H       -3.16984950       1.19115625      -0.77034339       0.00089041       0.00012476      -0.00330363
H       -1.70672258       1.78282722       0.02946697      -0.00364989      -0.00021759      -0.00058882
H       -1.12219033       1.94776827      -2.79617165      -0.00190766       0.00269172      -0.00158155
H        1.15147262       1.69884772       0.44623509      -0.00483162       0.00025105      -0.00616400
H        3.15751188       1.78276131      -1.04137960      -0.00023473       0.00092662       0.00070357
H        4.26339461      -0.31544307      -1.72222307       0.00083170      -0.00135877      -0.00026735
H        3.39794073      -2.49206421      -0.93704219       0.00032531      -0.00031718      -0.00143395
H        1.40230659      -2.57097610       0.52971022      -0.00225047      -0.00101646      -0.00245700
