27
Properties=species:S:1:pos:R:3:masses:R:1:forces:R:3 ###=T energy=-53247.38586559197 pbc="F F F"
C        3.60920635       0.83366203      -0.39018107      12.00000000       0.00099803       0.00011940       0.00033871
C        3.28508929       0.12773442       0.68239037      12.00000000      -0.00146097      -0.00021714       0.00152666
C        4.28539623      -0.35999421       1.69019095      12.00000000      -0.00177134       0.00057406       0.00165965
C        1.87142001      -0.25963644       1.00056302      12.00000000       0.00004506       0.00109216       0.00127942
O        1.02979698      -0.02982407      -0.13437469      15.99491462       0.00091864      -0.00057216       0.00043987
C       -0.30773663      -0.25977665       0.07532631      12.00000000       0.00018710      -0.00030576       0.00028883
C       -0.77612117      -1.53260163       0.37251839      12.00000000      -0.00026761      -0.00041974       0.00102746
C       -2.13575637      -1.76384660       0.48939354      12.00000000      -0.00001591       0.00006766       0.00099155
C       -3.02870644      -0.72410113       0.28178077      12.00000000       0.00057887      -0.00075429       0.00040102
Cl      -4.73233629      -1.01633055       0.40896042      34.96885268       0.00017039      -0.00007421      -0.00042855
C       -2.57687314       0.54189899      -0.03527871      12.00000000       0.00015359       0.00025763      -0.00047549
C       -1.20925927       0.78253223      -0.11502345      12.00000000      -0.00015471      -0.00010134      -0.00012670
C       -0.79970647       2.17912960      -0.43490011      12.00000000       0.00086875      -0.00042441       0.00040662
O       -1.31737951       2.87073221      -1.24299117      15.99491462       0.00007447      -0.00005015      -0.00123517
Cl       0.49170923       2.83211547       0.60171171      34.96885268       0.00063082      -0.00015640       0.00056531
Cl       2.21224811      -2.65097041      -1.54534724      34.96885268      -0.00227942       0.00123629      -0.00471695
H        4.64074492       1.09316307      -0.58961459       1.00782503       0.00032369      -0.00018295       0.00001875
H        2.86222291       1.17311780      -1.09383272       1.00782503       0.00056134      -0.00018640      -0.00018346
H        4.30968651      -1.45243852       1.71038620       1.00782503       0.00014423       0.00137774       0.00023566
H        4.02556333      -0.02371092       2.69737903       1.00782503      -0.00092571       0.00107141      -0.00097455
H        5.28386089       0.00296579       1.45597159       1.00782503       0.00118120      -0.00023941      -0.00043348
H        1.49516725       0.33152175       1.84259441       1.00782503       0.00048103      -0.00107065      -0.00026815
H        1.83628642      -1.31667907       1.28411480       1.00782503       0.00016689       0.00003749      -0.00053070
H       -0.07262231      -2.34770994       0.47700034       1.00782503      -0.00042402       0.00007084       0.00062150
H       -2.50698101      -2.75286410       0.71961388       1.00782503      -0.00005124       0.00001980       0.00048991
H       -3.27411739       1.34913073      -0.21117069       1.00782503      -0.00007743       0.00001918      -0.00043719
H        1.82016646      -1.44568345      -1.29259714       1.00782503      -0.00005575      -0.00118866      -0.00048047
