27
MACE opt transition state final energy: -53245.504717317184 eV
C       3.755645640000000      1.360656140000000     -0.044394990000000
C       3.718252230000000      0.132883580000000      0.518272470000000
C       4.878085210000000     -0.819983760000000      0.498117730000000
C       2.489948530000000     -0.218640660000000      1.126450060000000
O       0.863382690000000     -0.137184410000000     -0.523243360000000
C      -0.448943630000000     -0.334143370000000     -0.250330680000000
C      -0.972713430000000     -1.617935680000000     -0.104863510000000
C      -2.326550370000000     -1.803297560000000      0.101293360000000
C      -3.176712630000000     -0.708891230000000      0.153686670000000
Cl     -4.875353950000000     -0.943813070000000      0.401516080000000
C      -2.679034280000000      0.569510090000000      0.002154250000000
C      -1.312338170000000      0.762592960000000     -0.175080130000000
C      -0.882055130000000      2.171168430000000     -0.337102250000000
O      -1.354527890000000      2.984124510000000     -1.047654690000000
Cl      0.417799560000000      2.683660100000000      0.819700730000000
Cl      2.276906410000000     -2.595289940000000     -0.703312480000000
H       4.650675040000000      1.724167060000000     -0.533425280000000
H       2.879978780000000      1.995391430000000     -0.048682000000000
H       4.647631120000000     -1.653745900000000     -0.163833430000000
H       5.064544470000000     -1.228957480000000      1.492300730000000
H       5.779038790000000     -0.309295700000000      0.160158530000000
H       1.787925490000000      0.554530010000000      1.394013870000000
H       2.337231970000000     -1.220214560000000      1.506958540000000
H      -0.299123810000000     -2.463089610000000     -0.183388110000000
H      -2.729690430000000     -2.800665100000000      0.210564840000000
H      -3.342996760000000      1.422537530000000      0.024761430000000
H       1.306675580000000     -1.030183830000000     -0.776556390000000
