25
MACE opt transition state final energy: -40706.81923807742 eV
C       2.720744580000000     -1.225817230000000      0.586424200000000
C       3.075698580000000      0.101158350000000      0.643180730000000
C       4.292377900000000      0.592173210000000     -0.091945380000000
C       2.076771750000000      1.003835240000000      1.010028270000000
C       0.990389840000000      1.125123380000000     -0.780993250000000
C      -0.000319230000000      2.115195290000000     -0.524632670000000
C      -1.223873720000000      1.742129940000000     -0.065513640000000
C      -1.551227190000000      0.379399830000000      0.102677970000000
C      -0.642480160000000     -0.594807800000000     -0.198900400000000
C       0.651414430000000     -0.264158440000000     -0.758120430000000
O       1.510333300000000     -1.138806870000000     -1.056600050000000
H       3.399595060000000     -1.964963410000000      0.184189240000000
H       1.895812920000000     -1.611304990000000      1.165924680000000
H       5.126004690000000     -0.100112320000000      0.016881990000000
H       4.084681010000000      0.683328540000000     -1.163286470000000
H       4.612651020000000      1.567756190000000      0.273014040000000
H       1.252026030000000      0.673885080000000      1.631175020000000
H       2.299718950000000      2.061817070000000      1.075962970000000
H       1.852698530000000      1.404569550000000     -1.371658010000000
H       0.231005570000000      3.162360620000000     -0.668498240000000
H      -2.532791410000000      0.116353460000000      0.472989030000000
Cl     -2.434138620000000      2.931779030000000      0.300916210000000
C      -0.947571190000000     -2.021590260000000      0.078627120000000
O      -0.198556900000000     -2.829006080000000      0.507674090000000
Cl     -2.646651740000000     -2.483911400000000     -0.265463020000000
