25
MACE opt transition state final energy: -40705.6190459429 eV
O       0.233747920000000     -1.798279220000000      0.909571360000000
C       0.296458570000000     -0.711085580000000      0.252955420000000
C      -1.048673480000000     -0.170943360000000      0.102459440000000
C      -2.003560950000000     -0.965822200000000     -0.832680440000000
C      -3.339509120000000     -1.319484040000000     -0.228417410000000
C      -3.723126460000000     -2.585347720000000     -0.129372050000000
C      -4.197592570000000     -0.179847980000000      0.238278610000000
C      -1.152992280000000      1.249874780000000      0.141070850000000
C      -0.019715310000000      2.010396390000000      0.117376190000000
Cl     -0.120121170000000      3.744737620000000      0.185380040000000
C       1.252776360000000      1.423697160000000     -0.064003020000000
C       1.445015440000000      0.060676760000000     -0.088057440000000
C       2.818810960000000     -0.445619980000000     -0.294612390000000
O       3.798348340000000      0.225590500000000     -0.321057370000000
Cl      2.914830500000000     -2.184563820000000     -0.607819860000000
H      -0.990803380000000     -1.213832200000000      1.041944830000000
H      -2.158981510000000     -0.378448570000000     -1.742901450000000
H      -1.492526580000000     -1.883765630000000     -1.123330120000000
H      -3.086649440000000     -3.395155710000000     -0.464196220000000
H      -4.685295200000000     -2.851737220000000      0.290400430000000
H      -3.730447430000000      0.345869690000000      1.074748530000000
H      -4.346642160000000      0.549341580000000     -0.562438550000000
H      -5.173875320000000     -0.531736470000000      0.567141710000000
H      -2.121392650000000      1.732283390000000      0.113189690000000
H       2.120574930000000      2.061721820000000     -0.175170790000000
