25
MACE opt transition state final energy: -40707.249864218335 eV
C      -3.130517080000000      0.404266810000000      1.521619700000000
C      -3.350744540000000     -0.011097350000000      0.201405010000000
C      -4.425675760000000      0.604346980000000     -0.608244970000000
C      -2.552483000000000     -1.103929800000000     -0.416570210000000
C      -1.067180300000000     -0.935753340000000     -0.208248300000000
C      -0.206109320000000     -2.006022260000000     -0.091591130000000
C       1.159206030000000     -1.781086050000000      0.023300490000000
Cl      2.244604680000000     -3.136501370000000      0.142900280000000
C       1.656120040000000     -0.496415510000000      0.044566510000000
C       0.796366340000000      0.597377240000000     -0.034706830000000
C       1.301088650000000      1.976029400000000      0.096072150000000
O       0.714130270000000      2.931862040000000      0.466111350000000
Cl      3.044842390000000      2.171198860000000     -0.383013670000000
C      -0.604178460000000      0.409070300000000     -0.177863500000000
O      -1.475586020000000      1.360267400000000     -0.266418160000000
H      -2.334330030000000      1.159156760000000      0.962158610000000
H      -2.519023320000000     -0.224492330000000      2.161807440000000
H      -3.904613240000000      0.991916330000000      2.000757240000000
H      -5.169596710000000     -0.174475750000000     -0.811204480000000
H      -4.910255980000000      1.432699750000000     -0.097557740000000
H      -4.028440490000000      0.935026540000000     -1.566098340000000
H      -2.889292230000000     -2.032208860000000      0.060456550000000
H      -2.791525100000000     -1.178040420000000     -1.479936220000000
H      -0.580013120000000     -3.022486920000000     -0.102593860000000
H       2.719457310000000     -0.336349470000000      0.143032080000000
