51
Properties=species:S:1:pos:R:3:masses:R:1:forces:R:3 ###=T energy=-52246.46516426524 pbc="F F F"
C        4.31513357      -0.85295533      -0.48508388      12.00000000      -0.00237284      -0.00026464      -0.00222230
C        2.88373986      -1.34551367      -0.75224135      12.00000000       0.00004235      -0.00335707       0.00146559
C        2.96226069       0.68972646      -1.79019830      12.00000000       0.00124815       0.00329202       0.00153376
C        4.36810582       0.52855002      -1.18791348      12.00000000      -0.00081565      -0.00012291      -0.00190447
H        4.53839952      -0.79698633       0.58143752       1.00782503       0.00223363       0.00164487      -0.00464161
H        5.03193942      -1.53744146      -0.93692408       1.00782503       0.00081828       0.00139542       0.00094921
H        4.62102852       1.34250939      -0.50693398       1.00782503      -0.00132628      -0.00074898      -0.00203887
H        5.11190921       0.52153795      -1.98360415       1.00782503      -0.00007054       0.00267820      -0.00017729
C        1.90292361      -0.89643488       0.34141445      12.00000000      -0.00211693      -0.00348125      -0.00021850
H        0.89876381      -1.20994872       0.06571764       1.00782503      -0.00200972      -0.00116015      -0.00016937
H        2.13488365      -1.38361220       1.29239666       1.00782503       0.00229033       0.00327764      -0.00257356
C        1.99061235       1.37016529      -0.81336248      12.00000000      -0.00005742       0.00046150       0.00162113
H        0.99710201       1.39319969      -1.25960158       1.00782503      -0.00189599       0.00053898      -0.00218011
H        2.28930501       2.40704237      -0.63949825       1.00782503       0.00009609       0.00413493      -0.00174883
H        2.83370355      -2.43157532      -0.85986160       1.00782503       0.00083793      -0.00570408      -0.00033293
H        2.97590272       1.24136248      -2.73237418       1.00782503       0.00121879       0.00057381       0.00020945
C        1.96210075       0.62310148       0.52413407      12.00000000       0.00087110      -0.00403404       0.00320725
H        2.91279801       0.83618565       1.01794232       1.00782503       0.00372148       0.00377507      -0.00007741
N        0.97261943       1.15067248       1.47379553      14.00307400      -0.00379961      -0.00134385      -0.00022359
H       -0.17048519       2.38768615       3.54340551       1.00782503       0.00019380       0.00298973      -0.00641217
H        1.34642181       1.62906139       2.28480900       1.00782503      -0.00343547      -0.00446507      -0.00375852
N        2.59860316      -0.70583759      -2.03722470      14.00307400       0.00212118       0.00300878       0.00387209
C        1.29212948      -0.94617182      -2.61198060      12.00000000       0.00623093      -0.00171538       0.00421163
H        1.22194128      -0.42396715      -3.56763656       1.00782503      -0.00340965      -0.00255522       0.00575991
H        1.18116412      -2.01413195      -2.81082620       1.00782503      -0.00100368      -0.00159537       0.00378553
H        0.43903605      -0.62766840      -1.99496377       1.00782503       0.00435705      -0.00527230       0.00121104
C       -0.37047528       1.12472735       1.45863583      12.00000000      -0.00111113       0.00460483      -0.00357615
O       -1.03558062       1.63946018       2.36197302      15.99491462      -0.00092768       0.00368250      -0.00469312
Cl       0.73761119       2.93558326       4.35564816      34.96885268      -0.00589923      -0.00670031       0.00077468
C       -1.10352534       0.46221151       0.32962927      12.00000000       0.00407180       0.00124855       0.00213783
C       -1.50110783       1.17474931      -0.79659507      12.00000000       0.00078831       0.00027944       0.00258820
C       -1.51315086      -0.85609526       0.43203600      12.00000000      -0.00156093       0.00294560       0.00528352
C       -2.23920040       0.55370016      -1.79164002      12.00000000      -0.00467632       0.00260129       0.00498594
H       -1.23504480       2.21836476      -0.90144538       1.00782503       0.00128130       0.00091849       0.00124660
C       -2.25722817      -1.47631706      -0.55916947      12.00000000       0.00299659       0.00682931      -0.00038463
C       -2.62729643      -0.77651851      -1.68852624      12.00000000       0.00337195      -0.00070755      -0.00352051
H       -3.20790110      -1.23484995      -2.47776743       1.00782503      -0.00306331      -0.00086424      -0.00206379
O       -1.21916362      -1.65664854       1.47878298      15.99491462       0.00113873      -0.00561710      -0.00256785
C       -1.68257714      -3.01440203       1.17255175      12.00000000       0.00191741      -0.00459566      -0.00318671
C       -2.53595627      -2.88441223      -0.11609303      12.00000000       0.00136203       0.00545274       0.00032034
H       -2.24089718      -3.62706133      -0.85887852       1.00782503      -0.00111624       0.00338022      -0.00011745
H       -3.59733658      -3.02911744       0.09767075       1.00782503      -0.00079061      -0.00130695       0.00130231
C       -0.44084339      -3.85913510       0.94270411      12.00000000       0.00105785      -0.00209497      -0.00250171
H        0.21103411      -3.81537956       1.81577799       1.00782503      -0.00314527      -0.00541215      -0.00581389
H       -0.71683977      -4.89979659       0.76329775       1.00782503      -0.00059964       0.00450870       0.00321441
H        0.11369674      -3.49442353       0.07553844       1.00782503      -0.00421966      -0.00253746       0.00038298
C       -2.48401187      -3.48684998       2.36785160      12.00000000       0.00043470      -0.00005237       0.00139334
H       -2.85632953      -4.49788597       2.19444769       1.00782503       0.00204125      -0.00151815       0.00201857
H       -1.86402479      -3.49325680       3.26414803       1.00782503       0.00415370       0.00151190       0.00111875
H       -3.33262735      -2.82386951       2.53777007       1.00782503      -0.00282206       0.00052736       0.00026072
Cl      -2.68829103       1.46214507      -3.20565317      34.96885268       0.00134913       0.00096566       0.00225050
