21
Properties=species:S:1:pos:R:3:forces:R:3 #Cluster:5=T energy=-31488.979366005133 pbc="F F F"
O       -2.18198249       2.41028376      -0.35826293      -0.00122261      -0.00174549      -0.00014619
C       -2.76166594       1.44298890      -0.75853308      -0.00157474       0.00096424       0.00157329
C       -2.28678373       0.00763862      -0.51117491      -0.01367639      -0.00349192       0.02115587
O       -2.85849091      -0.92310775      -1.01396407       0.00049166      -0.00029815      -0.00100725
O       -1.22982212      -0.04630276       0.27827969       0.02245132       0.00963257      -0.03158688
C       -0.60353757      -1.36861401       0.44536291      -0.00881314      -0.00611118       0.01486844
O        0.62676476      -1.17800116       0.98666152       0.00063135       0.00158827       0.00981418
S        2.05496341      -0.51899184      -0.20403788      -0.01137441      -0.00137922      -0.00414428
O        2.91830914      -1.51776044       0.33739037       0.00093002       0.00129043      -0.00063490
O        1.18566180      -0.50078271      -1.33527136      -0.00097827       0.00109518       0.00106066
O        3.14808348       0.56311474      -0.73674678       0.00474790      -0.00895284      -0.00844889
O        1.68142145       0.83429706       1.11889739       0.01135304      -0.00691217      -0.01709665
C        1.17452364       2.11087754       0.63834954      -0.00159316       0.00099702       0.00024295
H       -3.68746661       1.49123978      -1.35528254       0.00030538       0.00005969      -0.00047375
H       -0.59049896      -1.84324250      -0.53435635       0.00790838       0.00585104      -0.00271357
H       -1.22804119      -1.93235814       1.14079640      -0.00459210      -0.00490715      -0.00858166
H        3.96397648       0.39752210      -0.24405730      -0.00248063       0.00550542       0.00765534
H        0.96092833       0.26063218       1.52874867      -0.00009706       0.00687468       0.01486007
H        1.29806613       2.81528850       1.45687589      -0.01079351      -0.00283533       0.00332922
H        1.79071439       2.39986301      -0.20527401       0.00599476       0.00426605       0.00757502
H        0.13146449       2.01256068       0.35234201       0.00238222      -0.00149109      -0.00730099
