30
Properties=species:S:1:pos:R:3:forces:R:3 #Cluster:1=T energy=-20289.744071931425 pbc="F F F"
C       -3.32688899      -1.47536158       0.36813291       0.00588046       0.00189560       0.00148970
O       -2.03675914      -2.06764149       0.19301900       0.00570054      -0.00720524       0.00557263
N       -1.18754955      -1.21332669      -0.51200205       0.00756396      -0.01131797      -0.01867184
C       -0.36515590      -2.02748424      -1.40693902      -0.01390034      -0.00417385       0.01492911
C       -0.42876398      -0.22582277       0.45549873      -0.00097704       0.02395853       0.02146202
O       -0.94830591      -0.05912638       1.52696887       0.00053460      -0.00746250      -0.00605173
C        1.04459353      -0.09286858       0.20428643      -0.00300849       0.00006809      -0.00580252
C        1.86781839      -0.81445875       1.06637544      -0.00584298      -0.00261626      -0.00216333
C        3.24457316      -0.75779918       0.92140373       0.00706043       0.00316009      -0.00402806
C        3.80329062       0.02828965      -0.07705537      -0.00084820      -0.00564982       0.00565907
C        2.98265630       0.75919688      -0.92290547      -0.00607196       0.00303400      -0.00359064
C        1.60223650       0.70202351      -0.78905129       0.01310952       0.00258336       0.00040028
O       -1.22336507       1.03425980      -0.89625281       0.00866663      -0.01915974       0.00957692
C       -1.84926808       2.06224331      -0.22432701      -0.00379104      -0.00276635      -0.00631382
O       -0.92146150       3.02046780       0.24435986       0.00542346       0.01256821       0.00163160
H       -3.91985706      -2.24160636       0.85993045      -0.00200593       0.00094872      -0.00115175
H       -3.26440708      -0.58922570       0.99596867      -0.00094970      -0.00068143      -0.00125386
H       -3.76753629      -1.23243282      -0.60216154      -0.00228779      -0.00080417      -0.00099677
H        0.25628547      -2.70398180      -0.82252071       0.00488733       0.00026816      -0.00576068
H       -1.02962700      -2.59327076      -2.05446268       0.00255256      -0.00026766      -0.00201838
H        0.26037563      -1.36256250      -1.99534444       0.00098099       0.00113362      -0.00225463
H        1.42310223      -1.40610733       1.85678412      -0.00148952      -0.00004350      -0.00002551
H        3.88068376      -1.31904134       1.59334053       0.00089866      -0.00005335       0.00023693
H        4.87869947       0.07967757      -0.18803650       0.00070844      -0.00078289       0.00138070
H        3.41746055       1.38921565      -1.68791966      -0.00140217       0.00068221      -0.00080472
H        0.94734574       1.28731846      -1.41761717      -0.00062812      -0.00053996       0.00040004
H       -1.64330092      -0.27378750      -0.98417076      -0.01541347       0.01452342       0.00380703
H       -2.52002385       2.60147994      -0.89901322       0.00508646       0.00705448       0.00529686
H       -2.43113978       1.67754933       0.63031690      -0.00784158      -0.00335178      -0.00725965
H       -0.45788973       2.62493478       0.99136048      -0.00259595      -0.00500196      -0.00369477
