39
Properties=species:S:1:pos:R:3:forces:R:3 #Cluster:3=T energy=-21941.03345676072 pbc="F F F"
C       -5.54015824      -2.14502774       1.89272314      -0.00613085      -0.01120895       0.00498690
C       -5.54584203      -1.17837127       0.71378477      -0.00486359       0.00709327      -0.01077160
N       -4.47743298      -0.19716976       0.74573473      -0.00794875       0.01045208      -0.00035385
C       -3.14928908      -0.53829675       0.60148128       0.01002345      -0.00908500       0.00392615
C       -2.15936954       0.36157463       1.03358650       0.00307896      -0.00243447      -0.00425561
C       -0.82622055       0.06361599       0.87848533      -0.00636887      -0.00335566       0.01194653
C       -0.40525852      -1.12770645       0.27424559      -0.01228347       0.02157230      -0.00625678
C       -1.39589350      -2.01917280      -0.13425564       0.01759338       0.00047469      -0.00145881
C        1.29455196      -1.78045513       0.82956960      -0.00536115       0.00705865      -0.02536183
O        1.67016690      -1.37486334       1.91121328       0.00088826       0.00137176       0.01202582
C       -2.74397028      -1.74345950       0.01503304      -0.01153654       0.00520568       0.00438880
N        1.98153306      -1.19564868      -0.50959514       0.00378565       0.00018157       0.00541325
C        2.77502734      -2.18982055      -1.22707155       0.00186572      -0.00503397      -0.00172671
C        2.64702915       0.05851699      -0.30144241       0.00354900       0.01827919       0.00129403
C        2.16686556       1.18537085      -0.95371812       0.00078564      -0.00978855       0.00484081
C        2.78522888       2.41321207      -0.76558004      -0.00086255       0.00156129      -0.00091394
C        3.88355822       2.51379606       0.07466095      -0.00045759       0.00106141      -0.00045676
C        4.35846533       1.38580988       0.73010810       0.00010498      -0.00398516       0.00139516
C        3.74198181       0.15796641       0.54914351      -0.00680675      -0.00341212      -0.00984182
H       -6.36156268      -2.85852975       1.81007233      -0.00024765      -0.00296115       0.00106980
H       -4.60431660      -2.70232238       1.93920700       0.00170221       0.00151520      -0.00452874
H       -5.65412770      -1.60311143       2.83292002       0.00018440       0.00332686       0.00010208
H       -5.49432949      -1.72368042      -0.23067082       0.00264489      -0.00526851       0.00537393
H       -6.48688885      -0.62661679       0.68694743       0.00574369       0.00039291       0.00259223
H       -4.63683097       0.58015516       1.36568203       0.00152654      -0.00032577      -0.00175037
H       -2.46453628       1.28986684       1.50536505       0.00126387       0.00114913       0.00073233
H       -0.07766914       0.75177913       1.25740269       0.00195851       0.00056607       0.00067694
H       -1.11080013      -2.96612108      -0.58574282       0.00064971      -0.00156682      -0.00189820
H        1.10788757      -2.83901461       0.58553118       0.00128380      -0.00664400       0.00541656
H       -3.47886069      -2.46260055      -0.32085030      -0.00142485       0.00114338       0.00008261
H        0.68734331      -1.04212009      -0.55141922       0.00294055      -0.02230906      -0.00090742
H        3.63010487      -2.52094374      -0.63031652       0.00035901       0.00203089       0.00123191
H        2.15004352      -3.05265232      -1.45540624       0.00211428      -0.00137386      -0.00005539
H        3.14143271      -1.76636838      -2.16114185      -0.00364634      -0.00076621      -0.00144180
H        1.30863100       1.09256550      -1.60837443      -0.00066516       0.00219210      -0.00132020
H        2.40749808       3.28890316      -1.27708222       0.00017709       0.00148908       0.00044457
H        4.36868291       3.47004529       0.22200001       0.00056191       0.00193030      -0.00047236
H        5.20837499       1.46413860       1.39573563       0.00196112      -0.00023870       0.00074938
H        4.08798729      -0.71574549       1.08281090       0.00185740      -0.00028995       0.00508234
