26
Properties=species:S:1:pos:R:3:forces:R:3 #Cluster:6=T energy=-21231.992802639365 pbc="F F F"
O       -5.54917009       0.07938295       0.55545544       0.00691006      -0.01075876       0.00084916
N       -4.67609172      -0.96813910       0.66805925       0.00965417       0.01635078      -0.00792713
O       -4.59186681      -1.49970797      -0.49509708      -0.02144464      -0.00370570      -0.00613163
C       -2.69714688       0.07928867      -0.31123034      -0.02932482      -0.01731454       0.01681759
C       -1.51512006       0.93496984      -0.47276486       0.03730913      -0.00308812       0.00015954
O       -1.64689269       2.09692201      -0.82708504      -0.01210035       0.01156987      -0.00110229
C       -0.15757755       0.36334839      -0.22154692      -0.00704012       0.02175577      -0.00287068
C        0.04908899      -0.87620847       0.38541336      -0.00004902      -0.00270402       0.01007798
C        1.32707245      -1.35443753       0.59275535      -0.00568840       0.00694284      -0.00514166
C        2.42412891      -0.59666480       0.19304661       0.01191052      -0.00488277       0.00181362
O        3.64675026      -1.15966319       0.42969427      -0.01101216      -0.00454178       0.00937634
C        4.78072183      -0.56778406      -0.16264548      -0.00389084      -0.01122000       0.00152610
O        5.16170669       0.62639256       0.44983591       0.00991830       0.00324200      -0.00222905
C        2.23932745       0.65056729      -0.39706709       0.00727189       0.00020912       0.00067008
C        0.95099640       1.11436587      -0.59844472      -0.00325574      -0.01286742       0.00267003
H       -5.58493931       0.44286572       1.45336816      -0.00365414       0.00039831       0.00178656
H       -4.01886758      -0.86328971      -1.12028378      -0.00813866      -0.00272141       0.01561278
H       -3.62489166       0.61719237      -0.40007957       0.00008641       0.01025573      -0.01233223
H       -2.58421051      -0.95743977      -0.07307449       0.02360353      -0.00850794      -0.01303274
H       -0.78856071      -1.47503924       0.71678260      -0.00292611      -0.00032210      -0.00207282
H        1.50072896      -2.31470431       1.05930222       0.00481848      -0.00041753      -0.00143539
H        4.58298300      -0.32972147      -1.20893195       0.00430538       0.00628093       0.00294090
H        5.55467452      -1.33250880      -0.08724807      -0.00240873       0.01033797      -0.00519670
H        5.42978438       0.43475702       1.35488620      -0.00379046      -0.00052277      -0.00187732
H        3.08482853       1.26732047      -0.66322132      -0.00171736      -0.00367231      -0.00385237
H        0.78201024       2.08376587      -1.04816623       0.00065393      -0.00009594       0.00090144
