24
#Cluster:7
O          -3.01220000     -1.89810000     -0.89560000
N          -2.24000000     -1.84520000      0.10670000
C          -1.33940000     -1.04800000      0.32900000
O          -1.49950000      0.15260000     -1.13000000
C          -2.15638065      1.36996335     -0.82615380
C          -1.12488869      2.45133843     -0.60181812
O          -1.37471981      3.57113191     -0.27320876
S          -0.26140000     -0.49670000      1.57210000
O          -0.62458074      0.89864396      1.82290336
C           1.21640884     -0.43385457      0.50492823
C           1.68550935     -1.58658062     -0.09779534
C           2.85815519     -1.52681784     -0.83130043
C           3.54654243     -0.32836520     -0.94566541
C           3.07127702      0.81577332     -0.32605123
C           1.90270778      0.76178125      0.41505850
H          -2.18160000     -0.50790000     -1.46450000
H          -2.79532238      1.66893811     -1.66717109
H          -2.79052492      1.27985797      0.06457516
H          -0.09796352      2.10284418     -0.81309677
H           1.13809014     -2.51180209      0.00182849
H           3.23789110     -2.41668845     -1.30945091
H           4.46230993     -0.28872234     -1.51584862
H           3.61152857      1.74643621     -0.41029493
H           1.51514118      1.63057751      0.92701358