22
Properties=species:S:1:pos:R:3:forces:R:3 #Cluster:1=T energy=-17084.99197788952 pbc="F F F"
C       -2.58849449       0.83405644       1.07600846       0.00393876       0.00673010      -0.00776507
O       -1.80920259       1.51202932       0.10948183       0.00325583       0.00253664       0.01049374
C       -1.42770893       0.70517708      -0.97496236       0.00857739       0.00177176      -0.00522854
C       -0.30232752      -0.25810602      -0.60352954      -0.01211923      -0.01256439      -0.00325426
N       -0.22991087      -1.31600368      -1.49685465       0.00071063       0.02880402       0.02029980
O        1.01499574      -1.75144402      -1.59637563       0.00733350      -0.02038442      -0.01173747
C        1.00910889       0.42637314      -0.27066429      -0.00297672       0.00842283       0.02424406
O        1.49885507       1.28226635      -0.95615916       0.00058562      -0.00233774      -0.01441397
O        1.53172148      -0.01568668       0.87419076      -0.00603669      -0.00116096      -0.00644551
C        2.77541171       0.59550155       1.24117763       0.01498115       0.00697671       0.00546314
O       -0.99702094      -2.38047200       0.08628106      -0.00581546       0.00614850       0.02150898
H       -2.01743458       0.05706367       1.59199152      -0.00005895      -0.00418494      -0.00136603
H       -2.91122305       1.57892590       1.79968981       0.00103892      -0.00327482       0.00316343
H       -3.46772544       0.36987242       0.61617904      -0.00333846       0.00350575       0.00021090
H       -2.26790429       0.11360889      -1.35566045      -0.00222455      -0.00065707       0.00293081
H       -1.07675036       1.38567585      -1.75117205      -0.00752103      -0.00416175      -0.00452540
H        0.96452561      -2.50609300      -2.20048106       0.00678046       0.00093940       0.00187741
H        3.53206044       0.39412663       0.48517537      -0.00306094      -0.00102270      -0.00173148
H        2.65072047       1.67163452       1.34350608      -0.00362077      -0.00089441      -0.00023935
H        3.05300165       0.14777118       2.18980229      -0.00236911      -0.00241894      -0.00022766
H       -0.67653149      -0.99285227       0.29568154       0.00026584       0.00174820      -0.02280104
H       -1.29284154      -3.24439867       0.41173892       0.00167391      -0.01452167      -0.01045652
