27
Properties=species:S:1:pos:R:3:forces:R:3 #Cluster:1=T energy=-18427.56250399807 pbc="F F F"
C        2.05783370       0.36918800      -0.09950995      -0.00715485      -0.00535222      -0.00754161
O        1.42371460       1.15748043      -1.06740172       0.00641503       0.00568052       0.00990262
C        0.86737445       2.32157274      -0.57280097      -0.00563311      -0.01656711      -0.01289447
F        1.86800289       3.20827903      -0.21131535       0.00432126       0.00431485       0.00269620
C        1.76927417      -1.00976563      -0.13691389       0.00677649       0.01434016      -0.00342872
C        2.69336922      -1.94569570       0.54734513      -0.00277227       0.00226768       0.00048923
C        0.63243524      -1.53301090      -0.93351293       0.01208724      -0.00921234      -0.00165242
C       -0.67268409      -0.90220838      -0.50211500       0.00191352       0.01500103       0.00562538
C       -1.76398959      -0.76332026      -1.34723691      -0.00666738       0.00287961      -0.00734054
C       -2.94045247      -0.19618076      -0.88564732       0.00093192      -0.00320391      -0.00226685
C       -3.00655450       0.25442693       0.43066263       0.00072286       0.00462772       0.00494277
C       -1.91988089       0.13767426       1.27772147      -0.00197402       0.00643805      -0.00659620
C       -0.72511799      -0.44513397       0.82772828      -0.01531538      -0.03362898       0.00789711
O        0.35826512      -0.54913038       1.57618779       0.00162212       0.00506989       0.00781269
H        3.07522804       0.66994630       0.13983892       0.00080947      -0.00065231       0.00056635
H        1.35789533       0.28653623       0.95633092      -0.00075237       0.00216384      -0.00385001
H        0.29064350       2.77039181      -1.37920283       0.00097156      -0.00078018       0.00649332
H        0.26629135       2.13518946       0.32050671       0.00383402       0.00597498      -0.00222026
H        3.33756527      -1.43575682       1.26072517       0.00206708      -0.00037823      -0.00003945
H        3.32686250      -2.39796202      -0.22487373      -0.00455154      -0.00420981       0.00212497
H        2.14279212      -2.73786041       1.04791072       0.00252858       0.00400511      -0.00284082
H        0.60084514      -2.62222137      -0.86064631      -0.00040700       0.00329627      -0.00103890
H        0.82250642      -1.25909351      -1.97626209      -0.00383549      -0.00048241       0.00037859
H       -1.69468586      -1.10684607      -2.37359160       0.00076355      -0.00022332       0.00308924
H       -3.79700397      -0.10636793      -1.54021877       0.00101579       0.00008466       0.00061961
H       -3.91997644       0.70707333       0.79700454       0.00111651      -0.00123948      -0.00053835
H       -1.96017215       0.50471430       2.29544193       0.00116634      -0.00021409      -0.00038941
