39
#Cluster:1
C          -5.17416771      0.74139142      2.37183558
C          -5.08228191      1.00821971      0.86810209
N          -4.49218195     -0.08420903      0.13267058
C          -3.15931467     -0.40466328      0.16383877
C          -2.17102315      0.48057736      0.61420634
C          -0.84240430      0.12916726      0.55187299
C          -0.43150000     -1.10260000      0.02920000
C          -1.42499159     -1.99635532     -0.38823434
C           1.19850000     -1.77520000      0.69210000
O           1.48950757     -1.35926965      1.79705863
C          -2.75580765     -1.65513260     -0.32829267
N           1.99260000     -1.20020000     -0.58850000
C           2.82183410     -2.19457846     -1.24838719
C           2.68310048      0.00770580     -0.27337692
C           3.70722267      0.02614862      0.66489151
C           4.32329200      1.22215667      0.98648837
C           3.92890269      2.39834323      0.37259446
C           2.90706178      2.38033307     -0.56196899
C           2.27965202      1.18972861     -0.88084128
H          -5.61362032      1.59611995      2.87892992
H          -5.79211529     -0.13311078      2.56507468
H          -4.18376933      0.56021956      2.78270296
H          -6.08329511      1.17376013      0.45977268
H          -4.49579421      1.91116936      0.68396913
H          -5.10592236     -0.87224963     -0.01461300
H          -2.44474964      1.44258670      1.01816792
H          -0.08996210      0.80807189      0.92834244
H          -1.14646612     -2.97100794     -0.76857666
H           1.04505506     -2.84284872      0.46904557
H          -3.51261369     -2.35310411     -0.66193018
H           0.69440000     -1.03790000     -0.72680000
H           3.60412110     -2.57755199     -0.58607570
H           2.19426201     -3.02750828     -1.56614115
H           3.29253084     -1.75618585     -2.12985657
H           4.00177369     -0.88728793      1.15627714
H           5.11206806      1.23528417      1.72419784
H           4.41303528      3.32997709      0.62609071
H           2.59263388      3.29713864     -1.03909975
H           1.47298127      1.17007366     -1.60020434

