22
#Cluster:1
C           0.00250000     -1.36520000     -0.98570000
C          -0.06090000      0.05080000     -0.86960000
C          -1.10270734      0.81339491     -0.17831107
O          -1.21460400      2.00838533     -0.36958970
C          -1.98179529      0.04799321      0.78593057
C          -3.05960206      0.92873800      1.40206755
C           1.23000000     -0.67720000      0.32050000
O           0.96210000     -0.57030000      1.50280000
O           2.39570000     -0.37630000     -0.32750000
C           2.89781481      0.91132434      0.03019921
H           0.41907895     -1.76803333     -1.90343516
H           1.05990000     -1.83440000     -0.13510000
H          -0.80440835     -1.94904888     -0.55996772
H           0.48656080      0.63580358     -1.59886531
H          -1.32204059     -0.35107859      1.56260343
H          -2.44600947     -0.79238493      0.26323333
H          -3.69528875      1.34406909      0.62364501
H          -3.67348594      0.35155076      2.08937613
H          -2.60442810      1.75419877      1.94149329
H           2.21312097      1.69693235     -0.29856710
H           3.02414579      0.97488333      1.11283426
H           3.85718753      1.00313710     -0.47166152