22
#Cluster:7
C           0.00250000     -1.36520000     -0.98570000
C          -0.06090000      0.05080000     -0.86960000
C          -1.14735989      0.70119919     -0.14572412
O          -1.99232033      0.08066595      0.46643618
C          -1.13960559      2.21845401     -0.22963285
C          -1.62265307      2.69284068     -1.60082825
C           1.23000000     -0.67720000      0.32050000
O           0.96210000     -0.57030000      1.50280000
O           2.39570000     -0.37630000     -0.32750000
C           2.93724776      0.89264902      0.01611597
H           0.38569967     -1.80584275     -1.89835997
H           1.05990000     -1.83440000     -0.13510000
H          -0.83040599     -1.88374196     -0.51736073
H           0.50054904      0.65503409     -1.56731672
H          -0.12706149      2.58289114     -0.04546852
H          -1.79894812      2.61028518      0.54487850
H          -2.64250564      2.35901794     -1.77451086
H          -1.60150704      3.77919930     -1.65020534
H          -0.99398619      2.30117913     -2.39779499
H           2.35232094      1.69833303     -0.43570129
H           2.95339144      1.01579880      1.10029499
H           3.94890279      0.89403191     -0.38264002