28
FINAL SINGLE POINT ENERGY      -558.044356190054
 C                 -1.75288800    0.76941400    0.96178200
 C                 -0.31047600    1.52733200   -0.44130400
 C                  0.89190900    1.12585900    0.12651100
 C                  1.27526800   -0.19401800    0.05886600
 C                  2.48114600   -0.73836100    0.76778300
 N                  2.44364200   -2.15693600    1.06783000
 C                  2.53434100   -3.00832000   -0.10580900
 C                 -2.98688600    1.19150900    0.38980000
 C                 -3.64440000    0.39469100   -0.49613000
 C                 -3.13185900   -0.89595000   -0.79506000
 C                 -2.00093400   -1.36247400   -0.19677600
 C                 -1.29683800   -0.57054700    0.77003700
 O                 -0.21509600   -0.97289700    1.30459200
 H                 -1.33448100    1.31749200    1.79481900
 H                 -0.72396200    0.98309300   -1.28197900
 H                 -0.62984700    2.55753900   -0.36099900
 H                  1.36791700    1.76897700    0.85979500
 H                  0.85687900   -0.80424000   -0.73376100
 H                  2.61804700   -0.17933800    1.69605300
 H                  3.36338600   -0.54156500    0.14687400
 H                  1.57846200   -2.34462100    1.55997700
 H                  3.49506500   -2.84573400   -0.59946500
 H                  1.74260700   -2.85176300   -0.85305400
 H                  2.49495900   -4.05251500    0.20316000
 H                 -3.37497000    2.17200300    0.63805400
 H                 -4.56267900    0.72762200   -0.96122000
 H                 -3.66251300   -1.52194400   -1.50235600
 H                 -1.61945200   -2.35508600   -0.40368200