21
#Cluster:4
O          -2.57307898      2.10802835      0.07896932
C          -3.21586051      1.10198127      0.00066809
C          -2.63421058     -0.30223916      0.18050863
O          -3.29825638     -1.29839552      0.06454673
O          -1.34848982     -0.25173210      0.47717313
C          -0.64570000     -1.51040000      0.61380000
O           0.61180000     -1.25450000      1.05050000
S           1.91320000     -0.52630000     -0.24240000
O           2.88550000     -1.41850000      0.29990000
O           0.98940000     -0.63820000     -1.32370000
O           2.87980000      0.61700000     -0.88240000
O           1.47320000      0.85390000      1.01700000
C           0.84812922      2.00659488      0.43882618
H          -4.29742294      1.08375488     -0.21619422
H          -0.66061661     -2.00791683     -0.36309342
H          -1.18551140     -2.11858367      1.35484533
H           3.76927343      0.55753212     -0.52792031
H           0.81730000      0.24920000      1.48690000
H           0.90180098      2.81997384      1.16342205
H           1.41149789      2.26540325     -0.45585643
H          -0.18934843      1.80864738      0.16987072