38
-806.317467 Hartree
 C                 -5.01352100    0.74937000    2.52114900
 C                 -4.98611900    1.11520000    1.04098700
 N                 -4.44937700    0.07648900    0.18170600
 C                 -3.12251500   -0.29373200    0.19194000
 C                 -2.12157300    0.51996400    0.74604800
 C                 -0.80088100    0.12289300    0.69654600
 C                 -0.40857500   -1.07351900    0.09110900
 C                 -1.41913600   -1.88583300   -0.43346900
 C                  1.19031700   -1.83014700    0.74437000
 O                  1.51384300   -1.47350700    1.86280600
 C                 -2.74532100   -1.51211000   -0.39367800
 N                  2.00825800   -1.27405800   -0.52699700
 C                  2.86027400   -2.27451900   -1.16367500
 C                  2.66237800   -0.01934900   -0.28401200
 C                  3.65167900    0.10176000    0.68538300
 C                  4.25949100    1.32995600    0.89233700
 C                  3.88313700    2.43611900    0.14176200
 C                  2.89260700    2.31349800   -0.82063200
 C                  2.28138200    1.08573500   -1.03242900
 H                 -5.41152100    1.57388700    3.11455800
 H                 -5.64419700   -0.12529100    2.68823800
 H                 -4.01324600    0.51664800    2.88689500
 H                 -5.99600500    1.33093400    0.68942900
 H                 -4.41231400    2.02997400    0.88329100
 H                 -5.08838400   -0.66943400   -0.03788200
 H                 -2.38098800    1.45221400    1.22883100
 H                 -0.04436000    0.73918400    1.17179700
 H                 -1.16036000   -2.83897100   -0.88732300
 H                  0.96768800   -2.87381400    0.46163100
 H                 -3.51115600   -2.15703100   -0.81105800
 H                  0.71892400   -1.05609500   -0.66609600
 H                  3.71362100   -2.53203600   -0.52973100
 H                  2.27805800   -3.17469700   -1.35743000
 H                  3.23265100   -1.89228200   -2.11360700
 H                  3.91865900   -0.75530100    1.28675500
 H                  5.02532800    1.42596300    1.65107500
 H                  4.36079300    3.39274400    0.30965300
 H                  2.59378000    3.17179500   -1.40834100
 H                  1.50430000    0.97575600   -1.77926400
