38
-806.317437 Hartree
 C                 -5.17776000    0.62910000    2.22774900
 C                 -5.07937100    1.03685100    0.76152200
 N                 -4.49243300    0.02664000   -0.09871600
 C                 -3.16485900   -0.33465800   -0.03307200
 C                 -2.20083600    0.46616600    0.59969800
 C                 -0.87605400    0.07970600    0.60588200
 C                 -0.44288300   -1.09247200   -0.01864600
 C                 -1.41792900   -1.89265100   -0.62313200
 C                  1.12671900   -1.86024500    0.69239600
 O                  1.39030800   -1.53542500    1.83581000
 C                 -2.74752900   -1.52944800   -0.63979200
 N                  2.00437600   -1.26039800   -0.51852400
 C                  2.88940300   -2.23822400   -1.14511600
 C                  2.64160600   -0.01358900   -0.20160100
 C                  3.58490200    0.07525200    0.81588100
 C                  4.17834900    1.29649100    1.09341800
 C                  3.83246000    2.42773600    0.36588000
 C                  2.88698000    2.33731400   -0.64416200
 C                  2.29068900    1.11650400   -0.92697000
 H                 -5.61143700    1.43391500    2.82320800
 H                 -5.80901400   -0.25402700    2.33863500
 H                 -4.19523300    0.39269500    2.63662900
 H                 -6.07214000    1.25613100    0.36615800
 H                 -4.50548800    1.95938600    0.65848900
 H                 -5.11398300   -0.71562500   -0.37351400
 H                 -2.49306000    1.37916700    1.10016000
 H                 -0.15041600    0.68395000    1.14106300
 H                 -1.12755500   -2.82744700   -1.09565700
 H                  0.92577800   -2.89598600    0.36762000
 H                 -3.48520300   -2.16446200   -1.11853600
 H                  0.72266400   -1.04294300   -0.71459500
 H                  3.70839600   -2.51949000   -0.47686700
 H                  2.31890800   -3.13017400   -1.40163000
 H                  3.31093100   -1.82263600   -2.05986500
 H                  3.82715300   -0.80196100    1.39840000
 H                  4.90848100    1.36715400    1.88923300
 H                  4.29858500    3.37875500    0.58896300
 H                  2.61189100    3.21533200   -1.21407000
 H                  1.54873200    1.03120700   -1.71178700

