51
Optimized Energy: -2098.140205 eV
 C                  4.53664300   -0.70888900    0.00866000
 C                  3.13521500   -1.32939600   -0.10919300
 C                  3.04030600    0.47287700   -1.48010200
 C                  4.47084000    0.51833100   -0.92033400
 H                  4.77758700   -0.44708800    1.03705300
 H                  5.28431200   -1.41617900   -0.34636700
 H                  4.67244900    1.45300600   -0.40067800
 H                  5.18773000    0.42084700   -1.73383300
 C                  2.16618900   -0.75239800    0.94007000
 H                  1.17012200   -1.15536500    0.76167300
 H                  2.47782000   -1.07277400    1.93573000
 C                  2.05227700    1.24754600   -0.59045300
 H                  1.04222000    1.08993100   -0.97076500
 H                  2.26638300    2.31765600   -0.64546000
 H                  3.15468200   -2.41963700   -0.02002900
 H                  2.98202500    0.85112300   -2.50515300
 C                  2.15334500    0.77486400    0.86819900
 H                  3.10618200    1.14177700    1.27061200
 N                  1.15885900    1.38858900    1.76089600
 H                  0.47504700   -0.20860200    3.31398500
 H                  1.13327000    2.38630500    1.58805000
 N                  2.77798500   -0.95216600   -1.46283800
 C                  1.52797500   -1.42011100   -1.99702700
 H                  1.44220000   -1.07017800   -3.02610500
 H                  1.55077700   -2.51085400   -2.00522500
 H                  0.63413900   -1.09152000   -1.44842900
 C                 -0.16847100    0.85392900    1.87320500
 O                 -0.18185000   -0.28681700    2.60846500
 Cl                -1.06264800    2.16218800    2.86126800
 C                 -0.97576900    0.69864600    0.60718700
 C                 -1.25655600    1.82093800   -0.17441100
 C                 -1.45235100   -0.52941500    0.16180900
 C                 -1.97100100    1.71199800   -1.35080700
 H                 -0.91713200    2.79062300    0.15492700
 C                 -2.18246700   -0.62217100   -1.03039700
 C                 -2.44651500    0.48349300   -1.80055200
 H                 -3.00410200    0.41000500   -2.72023300
 O                 -1.26771600   -1.71971700    0.75653800
 C                 -2.04071900   -2.72544900    0.06402500
 C                 -2.53429600   -2.06212700   -1.24504400
 H                 -2.01494900   -2.46332100   -2.11871500
 H                 -3.60476500   -2.20731400   -1.38929500
 C                 -1.13020300   -3.92291500   -0.18622100
 H                 -0.75572800   -4.30151000    0.76093200
 H                 -1.68097400   -4.71067700   -0.69292100
 H                 -0.28202200   -3.62879900   -0.79958700
 C                 -3.21221700   -3.10723500    0.96876100
 H                 -3.80531500   -3.89278000    0.50804700
 H                 -2.83559400   -3.45782600    1.92584500
 H                 -3.84233900   -2.23834300    1.14551500
 Cl                -2.28139600    3.13273700   -2.28657700

