25
Optimized Energy: -1247.086855 eV
 C                 -3.16670800   -1.07602500   -1.28710500
 C                 -3.15750700    0.01612900   -0.53885700
 C                 -4.20618800    0.29748200    0.49249600
 C                 -2.06256300    1.03657200   -0.66442800
 C                 -1.12294000    1.03538600    0.58867500
 C                 -0.09742600    2.08691700    0.39880500
 C                  1.15966200    1.77908500    0.04020200
 C                  1.57163500    0.42093200   -0.13847000
 C                  0.74626100   -0.61455400    0.14832500
 C                 -0.59462700   -0.37696900    0.73481600
 O                 -1.24500100   -1.23807600    1.27403700
 H                 -3.95073300   -1.80806200   -1.20765100
 H                 -2.38984100   -1.28740200   -2.00200300
 H                 -5.08112700   -0.32434100    0.32827500
 H                 -3.81654100    0.06937500    1.48423500
 H                 -4.50590100    1.34413400    0.47209200
 H                 -1.45499200    0.83312300   -1.54756100
 H                 -2.48960500    2.03740000   -0.75767200
 H                 -1.75044300    1.26191800    1.45542600
 H                 -0.41372000    3.11506200    0.49251400
 H                  2.56535700    0.23613100   -0.52134100
 Cl                 2.34264700    3.00832300   -0.24811900
 C                  1.12064100   -2.01411600   -0.08204300
 O                  0.41119500   -2.92978300   -0.32398600
 Cl                 2.88185700   -2.28358800    0.01569400

