27
Optimized Energy: -1383.438321 eV
 C                  3.88998100    1.41284200    0.10839000
 C                  3.68451300    0.14469900    0.55272800
 C                  4.77386600   -0.87835700    0.50878500
 C                  2.43107000   -0.20274200    1.08931800
 O                  0.86816500   -0.09127300   -0.57819500
 C                 -0.41612300   -0.29255600   -0.29119300
 C                 -0.91539500   -1.58909600   -0.09195800
 C                 -2.24843500   -1.82600500    0.14854800
 C                 -3.14229800   -0.75888600    0.18096900
 Cl                -4.81570500   -1.04376300    0.46857500
 C                 -2.68923200    0.52928700   -0.02200700
 C                 -1.33123500    0.78299500   -0.23116300
 C                 -0.99394600    2.19257600   -0.43160000
 O                 -1.67202100    3.03046000   -0.93101300
 Cl                 0.56319100    2.66913000    0.24802200
 Cl                 2.24998300   -2.53936600   -0.75145500
 H                  4.84072800    1.72079600   -0.29349900
 H                  3.09877300    2.14207900    0.11919000
 H                  4.43535400   -1.74131700   -0.05794500
 H                  5.00810500   -1.21683000    1.51604600
 H                  5.67278500   -0.47967800    0.04962900
 H                  1.75298100    0.58095000    1.37994000
 H                  2.25626400   -1.20196800    1.44793800
 H                 -0.21722900   -2.41098800   -0.14204400
 H                 -2.60486400   -2.83211600    0.30291600
 H                 -3.37546700    1.36199400   -0.01038900
 H                  1.34987200   -0.98697600   -0.77045300

