25
Optimized Energy: -1245.064070 eV
 O                  0.22983800   -1.77300500    1.05302900
 C                  0.35257900   -0.72066500    0.34577600
 C                 -0.97224400   -0.14190300    0.14832400
 C                 -1.99590400   -0.94408500   -0.68421300
 C                 -3.36956200   -1.03623700   -0.06737900
 C                 -3.58459100   -1.01503900    1.23756600
 C                 -4.47803200   -1.19133400   -1.06272700
 C                 -1.06326500    1.26486900    0.09570500
 C                  0.10010100    2.00625600    0.02953000
 Cl                 0.01424800    3.73613600    0.01378300
 C                  1.34586100    1.39405400   -0.10553500
 C                  1.51263100    0.01301100   -0.00448200
 C                  2.85672500   -0.53396500   -0.12929900
 O                  3.87576200    0.08045800   -0.20587400
 Cl                 2.87706500   -2.29471700   -0.22833500
 H                 -1.11017400   -1.14907300    1.11244400
 H                 -2.07385000   -0.47596600   -1.66920900
 H                 -1.61336200   -1.95833100   -0.83857700
 H                 -2.79035800   -0.89563300    1.96001800
 H                 -4.57390700   -1.11540900    1.64723600
 H                 -4.55180600   -0.30097300   -1.68657400
 H                 -4.27945200   -2.03873400   -1.71748600
 H                 -5.43124100   -1.34759800   -0.56674400
 H                 -2.02689200    1.75105700    0.07089900
 H                  2.22812900    1.99714600   -0.26145800

