25
Optimized Energy: -1246.709597 eV
 C                 -2.66981700   -1.30583100   -0.52062800
 C                 -3.11083500    0.02016500   -0.52598700
 C                 -4.31429700    0.40546900    0.27366800
 C                 -2.12409200    1.03000400   -0.79248600
 C                 -1.10205100    1.03453400    0.57992500
 C                 -0.10307800    2.08007900    0.43575200
 C                  1.16148100    1.77905000    0.04584600
 C                  1.58865200    0.44679000   -0.12509600
 C                  0.71532900   -0.59480800    0.09060500
 C                 -0.60668300   -0.35499000    0.57863000
 O                 -1.45474800   -1.28000400    0.79307800
 H                 -3.34078600   -2.07416300   -0.16542000
 H                 -1.98180600   -1.64372800   -1.28304200
 H                 -4.03534000    0.57073100    1.31857800
 H                 -4.75471900    1.32535400   -0.10468500
 H                 -5.06204100   -0.38192500    0.25209300
 H                 -1.45566600    0.81290900   -1.62010600
 H                 -2.51028800    2.04233500   -0.85642400
 H                 -1.81879500    1.23867000    1.37579800
 H                 -0.39992000    3.10504500    0.59666600
 H                  2.60522200    0.25218400   -0.42732700
 Cl                 2.32234900    3.03821100   -0.19710800
 C                  1.10827600   -1.98952300   -0.14491500
 O                  0.42791900   -2.88610800   -0.51704100
 Cl                 2.83714900   -2.28669000    0.15791300

