51
Optimized Energy: -2097.557555 eV
 C                  4.49574600   -0.61078000   -0.39932900
 C                  3.17421400   -1.39559200   -0.42743700
 C                  2.72028200    0.46730500   -1.64088000
 C                  4.18417100    0.65814000   -1.21619400
 H                  4.81725200   -0.39254700    0.61720200
 H                  5.27844800   -1.19216100   -0.88334400
 H                  4.32173200    1.57523300   -0.64760300
 H                  4.82014700    0.70934300   -2.09795300
 C                  2.26591000   -1.00940400    0.75701600
 H                  1.30736600   -1.51546600    0.66640600
 H                  2.72477900   -1.33405700    1.69252100
 C                  1.73529500    1.05211200   -0.61349200
 H                  0.72524800    0.78004200   -0.91376500
 H                  1.79158100    2.13972600   -0.59326400
 H                  3.33340200   -2.47805300   -0.42347100
 H                  2.51270300    0.89676000   -2.62421700
 C                  2.05414300    0.50781300    0.77848300
 H                  2.98380100    0.97773800    1.10998400
 N                  1.06983500    0.88950500    1.79341700
 H                 -0.40958900    2.54560400    2.91152900
 H                  1.48686600    1.31638900    2.61514900
 N                  2.62876100   -0.97883800   -1.70169100
 C                  1.39347300   -1.56501100   -2.14524500
 H                  1.16507300   -1.17370000   -3.13641600
 H                  1.53754600   -2.64336500   -2.22718300
 H                  0.52633100   -1.37366000   -1.49660900
 C                 -0.20866700    1.16219400    1.68118100
 O                 -0.85277700    1.67774300    2.69846300
 Cl                 0.46541900    3.69078000    1.41607300
 C                 -1.07481000    0.65585700    0.59963400
 C                 -1.75060300    1.58155600   -0.20140300
 C                 -1.35864000   -0.69273900    0.41627900
 C                 -2.62274600    1.15573100   -1.18493000
 H                 -1.54489700    2.62947000   -0.04827800
 C                 -2.26132500   -1.10678600   -0.56735700
 C                 -2.89011700   -0.19800300   -1.38412000
 H                 -3.58003400   -0.51437600   -2.14956800
 O                 -0.85437500   -1.71319800    1.13999000
 C                 -1.54033500   -2.93681200    0.76835800
 C                 -2.35285000   -2.60127900   -0.50668200
 H                 -1.90877800   -3.05583100   -1.39550600
 H                 -3.38279800   -2.94693900   -0.42654300
 C                 -0.48707300   -4.01347300    0.53099800
 H                  0.10372100   -4.15736300    1.43183400
 H                 -0.97016700   -4.95117100    0.27118200
 H                  0.17903600   -3.72238600   -0.27774900
 C                 -2.46063200   -3.31423000    1.92830800
 H                 -2.97946600   -4.24348900    1.70996500
 H                 -1.87727400   -3.43855400    2.83686200
 H                 -3.19191200   -2.52599400    2.09328600
 Cl                -3.41222400    2.32205400   -2.18097100

