22
Properties=species:S:1:pos:R:3:forces:R:3 #Cluster:3=T energy=-17084.99366327624 pbc="F F F"
C       -2.93657875       0.34500038       0.41876501      -0.00140466       0.00959380       0.00026022
O       -2.04335117       1.12353996      -0.35405354      -0.00698449      -0.00099691      -0.00187408
C       -1.44861130       0.41133740      -1.40931636      -0.00420985       0.01087662      -0.01130398
C       -0.31787819      -0.48571259      -0.91214720      -0.00487992      -0.01475995      -0.00343433
N        0.00320325      -1.45965219      -1.84364422      -0.00775543       0.02902954       0.01041726
O        1.28136291      -1.78547671      -1.74743470       0.00686283      -0.01731554      -0.00376147
C        0.84878447       0.27694868      -0.31514344       0.01147358       0.02440553       0.01750725
O        1.37662705       1.20581670      -0.86419598      -0.00157146      -0.01306860       0.00566721
O        1.19637277      -0.18861476       0.88555012       0.00399031      -0.00134943      -0.01060516
C        2.29815437       0.49505346       1.49918990      -0.01854296      -0.00406307      -0.01255418
O       -0.92920288      -2.70290133      -0.49096638       0.00019578       0.00066657       0.02358268
H       -2.43062759      -0.48729657       0.91626918      -0.00069738      -0.00272952      -0.00102432
H       -3.36183590       1.00457121       1.17161238       0.00297455       0.00109296      -0.00064862
H       -3.74199953      -0.05951018      -0.20384516      -0.00000099      -0.00551275      -0.00000663
H       -2.17493887      -0.21588164      -1.93814260      -0.00101335       0.00018448       0.00390901
H       -1.04421140       1.15718438      -2.09418664       0.00016224       0.00604321       0.00820494
H        1.40630445      -2.49064693      -2.39846273       0.00226425      -0.00474468      -0.00007650
H        3.18648272       0.41249544       0.87623070       0.00443551      -0.00278578      -0.00250495
H        2.05630161       1.54668946       1.63871350       0.00045839       0.00205074       0.00494172
H        2.45152654       0.00329341       2.45422294      -0.00190151       0.00410579      -0.00057325
H       -0.77239903      -1.31572667      -0.14041181       0.01722579      -0.01918219      -0.02274324
H       -1.18723472      -3.61136254      -0.27137441      -0.00108158      -0.00154086      -0.00337984
