16
/mnt/e/work/rmlp/database/CAMD/log/success_log/ts_147_1_R-B-3_opt.log
N          3.41104       -0.63661       -0.21812
C          2.31078       -0.63841        0.11610
C          1.02142       -0.69772        0.57788
N          0.01880       -0.89903        1.13325
C         -1.60953        0.28853        0.63464
C         -1.95913       -0.44626       -0.59687
O         -2.26961       -1.60404       -0.66598
C         -0.97543        1.50508        0.65975
C          0.08926        1.84339       -0.20814
C          0.65435        0.98929       -1.09660
H         -2.21279       -0.00122        1.48682
H         -1.99889        0.20770       -1.49356
H         -1.11940        2.14389        1.52045
H          0.58125        2.78955       -0.02331
H          1.53443        1.28687       -1.64461
H          0.17308        0.09147       -1.44436
