17
/mnt/e/work/rmlp/database/CAMD/log/success_log/ts_115_1_S-B-8_opt.log
C          2.56629       -0.26504       -1.38481
C          1.77025       -0.38428       -0.10268
O          2.23894       -0.74626        0.93861
C          0.31196       -0.05530       -0.30781
N         -1.14047        1.42739        0.43212
O         -1.82455        1.77032       -0.42428
C         -0.57684       -0.97271        0.45674
O         -0.39684       -1.36728        1.57861
C         -1.73368       -1.36488       -0.34381
N         -2.61467       -1.66453       -1.01003
O          0.34828        2.38894        0.49042
H          2.25680       -1.04249       -2.08091
H          3.62175       -0.39547       -1.16203
H          2.40562        0.70168       -1.85594
H          0.03539        0.04386       -1.35684
H          0.62372        1.23839        0.18275
H          0.38811        3.00146       -0.25439
