25
/mnt/e/work/rmlp/database/CAMD/log/success_log/ts_107_1_S-A-11_opt.log
C          3.63349        0.55790        0.66699
O          3.36172       -0.14562       -0.52554
C          2.04179       -0.03887       -0.97083
C          1.00326       -0.75911       -0.09333
O          1.25545       -1.31273        0.93974
O         -0.20388       -0.70551       -0.62682
C         -1.87781       -0.71317        0.29937
C         -2.47870       -1.89615       -0.35410
O         -1.77616       -0.36385        1.42072
O         -2.09327        0.56427       -0.74694
N         -2.15445        1.81389       -0.09025
C         -0.84605        2.39208        0.14795
H          3.40588        1.62609        0.54974
H          4.69789        0.43224        0.85209
H          3.06733        0.15606        1.51033
H          2.01496       -0.49442       -1.96529
H          1.73861        1.01969       -1.06238
H         -2.35336       -1.85169       -1.43017
H         -1.99707       -2.78732        0.04032
H         -3.53858       -1.91944       -0.10533
H         -0.97758        0.24567       -1.03723
H         -2.60892        1.62735        0.80822
H         -1.01148        3.35281        0.63040
H         -0.20101        1.78197        0.78998
H         -0.36228        2.56523       -0.81443
