25
/mnt/e/work/rmlp/database/CAMD/log/success_log/ts_176_1_S-B-7_opt.log
C         -2.64697       -0.65180       -0.69642
N         -1.23030       -0.53419       -0.90455
C         -0.34765        0.25244       -0.14597
N          0.25583       -1.98697        0.70541
O         -0.62788       -2.31110        0.03252
C         -0.60552        1.65195        0.26932
C         -1.89419        2.28636       -0.20719
O          0.18725        2.27318        0.94271
C          1.04432       -0.00578       -0.61816
O          1.27833       -0.58117       -1.66281
O          1.97948        0.48076        0.19917
C          3.32061        0.32823       -0.23631
O         -0.41915       -1.07020        2.11744
H         -3.22298        0.05824       -1.29587
H         -2.87063       -0.50340        0.35856
H         -2.95419       -1.66082       -0.97313
H         -0.87110       -0.79292       -1.81878
H         -1.82855        3.35619       -0.02493
H         -2.04796        2.10770       -1.26776
H         -2.73918        1.89290        0.35168
H          3.56815       -0.73184       -0.32714
H          3.46556        0.80810       -1.20628
H          3.93779        0.80488        0.52036
H          0.36737       -0.91938        2.64949
H         -0.39082       -0.27176        1.20387
