17
/mnt/e/work/rmlp/database/CAMD/log/success_log/ts_13_2_A-E-10_opt.log
C          0.99306       -1.92256       -0.40976
C         -0.02064       -1.14570        0.21267
C         -1.19300       -0.70074       -0.61554
Cl        -2.33648        0.26946        0.35157
C          1.48037       -0.06419        0.17087
O          1.89449        0.14356        1.29590
O          1.21464        0.81880       -0.83498
C          0.65691        2.04238       -0.35324
H          2.14947       -0.88929       -0.46974
H          0.94256       -2.09493       -1.47562
H          1.54044       -2.64711        0.17373
H         -0.22319       -1.31101        1.26132
H         -0.87551       -0.08874       -1.46294
H         -1.76460       -1.55862       -0.98103
H          1.33836        2.49885        0.36728
H         -0.31064        1.88065        0.12370
H          0.55006        2.67533       -1.23070
