23
/mnt/e/work/rmlp/database/CAMD/log/success_log/ts_125_1_A-E-8_opt.log
C         -1.41609        0.40554        0.27871
C         -1.86267       -0.93872       -0.11036
C         -2.98972       -1.49606        0.71706
O         -1.35682       -1.54162       -1.03668
C         -0.59057        1.20319       -0.58784
C         -0.68048        2.70534       -0.52731
C          0.66330        0.63841        0.40296
O          1.15577        1.51353        1.13317
C          1.45246       -0.29219       -0.52548
C          2.47397       -1.07307        0.25829
O          3.58309       -1.30055       -0.12184
H          0.04787       -0.18112        1.05710
H         -1.86262        0.87171        1.14546
H         -3.25249       -2.48977        0.36512
H         -3.85754       -0.84347        0.64106
H         -2.69509       -1.54381        1.76354
H         -0.49138        0.81719       -1.59805
H         -1.56289        3.05133       -1.06201
H          0.20166        3.14373       -0.98659
H         -0.72173        3.04228        0.50485
H          1.95217        0.30712       -1.28917
H          0.78416       -1.01367       -1.00589
H          2.10031       -1.44724        1.23120
