24
/mnt/e/work/rmlp/database/CAMD/log/success_log/ts_160_1_NO2-A-4-d_opt.log
N         -1.43912       -0.37105        1.55409
C         -1.50963        0.40915        0.35182
O         -2.52380        1.36494        0.40464
N         -1.74261       -0.38537       -0.83980
O         -3.11602       -1.43210       -0.56209
C         -0.15889        1.14581        0.04350
O         -0.26719        2.31352       -0.26997
C          1.10905        0.42747        0.09154
C          1.27222       -0.85044        0.62984
C          2.51304       -1.45846        0.58521
C          3.59730       -0.80989        0.01674
C          3.44599        0.46496       -0.50981
C          2.21355        1.08057       -0.47250
O         -0.95110       -1.41941       -1.00965
H         -2.30992       -0.88499        1.65223
H         -1.33967        0.24105        2.35557
H         -2.16761        2.18797        0.02167
H          0.43210       -1.35077        1.07992
H          2.63467       -2.44899        0.99721
H          4.56196       -1.29513       -0.01603
H          4.29005        0.97292       -0.95221
H          2.07328        2.06788       -0.88661
H         -2.14881       -2.04010       -0.94822
H         -3.78477       -1.22555       -1.22505
