29
/mnt/e/work/rmlp/database/CAMD/log/success_log/ts_132_1_NO2-B-7-d_opt.log
O          1.74376       -2.76760       -0.33610
S          0.82217       -1.71371       -0.75352
C         -0.49100       -1.67196        0.65562
N         -1.30654       -0.57849        0.45473
C         -2.29025       -0.66711       -0.48960
N         -2.60464        0.53318       -1.19311
C         -2.85750        1.70939       -0.36778
O         -1.71363        2.15005        0.27000
C          1.60403       -0.14754       -0.29685
C          2.75851       -0.16338        0.46269
C          3.35298        1.03640        0.81291
C          2.78774        2.23213        0.39884
C          1.63541        2.23470       -0.37213
C          1.04016        1.03843       -0.73258
O         -2.78921       -0.81046        1.77147
H          0.07524       -1.59369        1.58174
H         -0.96400       -2.65783        0.55690
H         -2.26408       -1.53505       -1.16137
H         -3.36042        0.38166       -1.84920
H         -3.18752        2.51710       -1.02812
H         -3.65678        1.49309        0.37123
H         -1.38068        1.40297        0.79599
H          3.17483       -1.11349        0.76412
H          4.25350        1.03739        1.40875
H          3.24966        3.16752        0.67787
H          1.19303        3.16614       -0.68790
H          0.14028        1.02792       -1.32617
H         -3.17505       -0.89049        0.34455
H         -3.04221       -0.84900        2.70698
