21
/mnt/e/work/rmlp/database/CAMD/log/success_log/ts_117_1_R-A-7_opt.log
O         -0.87334        1.31186       -1.02277
C         -1.75644        0.28579       -0.75807
C         -2.95544        0.69969        0.11010
O         -3.52160       -0.36814        0.83257
C         -4.24161       -1.28790        0.04866
C         -0.62115       -0.31593       -0.03825
N          1.09034        0.55958       -0.10310
C          1.18149        1.62694        0.87592
Br         2.73664       -0.58433       -0.00983
H          1.06247        0.95523       -1.04610
H         -2.07922       -0.24274       -1.66780
H         -2.61168        1.41495        0.86203
H         -3.70866        1.18948       -0.52362
H         -3.58456       -1.87152       -0.60508
H         -4.99460       -0.77985       -0.56539
H         -4.73816       -1.95934        0.74690
H         -0.16037       -1.20503       -0.45148
H         -0.66119       -0.25820        1.04042
H          2.07170        2.24017        0.72778
H          1.20779        1.19318        1.87609
H          0.30007        2.25683        0.76342
