13
/mnt/e/work/rmlp/database/CAMD/log/success_log/ts_194_1_RR-A-1_opt.log
C          1.09523       -0.08199       -0.65909
C          2.29523       -0.42823        0.11919
O          2.74112        0.15486        1.07824
O          2.86877       -1.53838       -0.38404
C          0.32541        1.03862       -0.24353
O          0.97920        2.10718       -0.47015
C         -1.01667        1.09645        0.38580
Br        -2.07211       -0.48973        0.03047
H          1.80029        1.20679       -1.03121
H          0.63591       -0.95884       -1.09846
H          3.65065       -1.76534        0.14078
H         -0.88876        1.15494        1.47082
H         -1.58227        1.96489        0.04496
