18
/mnt/e/work/rmlp/database/CAMD/log/success_log/ts_111_1_NO2-A-10-e_opt.log
C          2.27758        1.28693        0.48175
N          1.09904        0.60127        0.00875
C          1.10008       -0.70468       -0.17953
O          2.01792       -1.47964       -0.00087
C         -0.25170       -1.31107       -0.71046
N         -1.37317       -0.43478       -0.78011
N         -2.00858        0.00134        0.22136
O         -1.63241       -0.53991        1.40897
O         -1.08950        1.82240       -0.59791
H          2.61096        2.01205       -0.26309
H          2.05242        1.81288        1.41107
H          3.06969        0.56006        0.65852
H          0.22933        1.20268       -0.20700
H         -0.04862       -1.70192       -1.70835
H         -0.47795       -2.13949       -0.03414
H         -2.22099       -0.15594        2.07604
H         -1.32995        0.40913       -1.42711
H         -1.02975        2.77589       -0.68801
