27
/mnt/e/work/rmlp/database/CAMD/log/success_log/ts_153_1_R-B-9_opt.log
C         -2.70026        0.70100        1.02726
C         -1.65078        1.52864        0.29338
C         -0.55358        0.73694       -0.38602
C         -0.99931       -0.36811       -1.27895
Cl        -1.42544       -1.88829       -0.37906
C          0.59159        1.51032       -0.67797
O          0.83195        2.66653       -0.44852
O          1.64323        0.60146       -1.13401
C          1.64681       -0.29318       -0.16966
C          1.87145       -1.70696       -0.56777
C          1.85527        0.07340        1.26500
C          0.97544       -0.71857        2.22946
H         -3.26611        0.07360        0.34375
H         -3.39941        1.36682        1.52808
H         -2.24174        0.06313        1.77967
H         -2.15780        2.14134       -0.46248
H         -1.17623        2.22267        0.99080
H         -0.24565       -0.65425       -2.00928
H         -1.92698       -0.10417       -1.79308
H          0.96128       -2.28872       -0.41388
H          2.14002       -1.75881       -1.62048
H          2.65237       -2.15839        0.04047
H          1.69838        1.14294        1.40916
H          2.90659       -0.14297        1.49591
H          1.17196       -0.40392        3.25057
H         -0.07176       -0.53777        2.00353
H          1.16626       -1.78522        2.15298
