22
/mnt/e/work/rmlp/database/CAMD/log/success_log/ts_127_1_A-F-2_opt.log
C         -4.67030       -0.34466       -0.07626
C         -3.26025       -0.58157       -0.53014
O         -2.78952       -1.67033       -0.73082
C         -2.43104        0.68943       -0.66011
C         -1.59459        0.76057        0.60876
O         -1.85110        1.47364        1.54211
C         -0.48581       -0.15711        0.56469
C         -0.12954       -1.33731        0.74849
Br         2.11904       -1.34503        0.12182
S          1.18985        1.06396       -0.19066
C          2.92261        1.40907       -0.76099
O          0.43931        1.30135       -1.39419
O          1.09564        1.89089        0.97375
H         -5.17627       -1.28957        0.10327
H         -5.21038        0.21593       -0.83702
H         -4.65746        0.25080        0.83503
H         -3.06029        1.57584       -0.71655
H         -1.76469        0.62015       -1.51946
H         -0.23700       -2.35949        1.00813
H          3.11753        0.78427       -1.62278
H          3.58963        1.19913        0.06481
H          2.93383        2.46085       -1.02181
