24
/mnt/e/work/rmlp/database/CAMD/log/success_log/ts_122_1_S-A-11_opt.log
C          1.39528        2.13456        0.51195
O          1.73328        1.45167       -0.67792
C          2.55905        0.33368       -0.45285
C          1.74393       -0.86530        0.06123
O          2.13306       -1.63339        0.89572
O          0.58344       -0.94980       -0.56399
C         -1.05465       -1.15758        0.19944
C         -1.59262       -2.26754       -0.61899
O         -1.05316       -0.90042        1.34371
O         -1.33769        0.23767       -0.80656
O         -1.55504        1.39665       -0.03733
C         -2.92015        1.54309        0.26563
H          0.72789        2.94167        0.21997
H          0.88193        1.48150        1.22454
H          2.29089        2.54699        0.98996
H          2.98826        0.06244       -1.42236
H          3.36857        0.55273        0.25352
H         -1.42925       -2.08283       -1.67506
H         -2.65785       -2.36309       -0.41699
H         -1.08506       -3.18230       -0.32171
H         -0.13320        0.07772       -0.94671
H         -2.96584        2.49044        0.79915
H         -3.27646        0.73606        0.91153
H         -3.52619        1.59393       -0.64333
