22
/mnt/e/work/rmlp/database/CAMD/log/success_log/ts_118_2_A-E-10_opt.log
C          1.45898       -1.88617       -0.05590
C          1.05744       -0.83020       -0.93520
O         -0.23234       -0.45656       -1.18920
C         -1.16552       -0.63796       -0.22405
O         -1.25765       -1.62970        0.46331
C         -2.19133        0.49530       -0.24272
C         -2.85131        0.66729        1.08576
O         -2.38563        1.16742       -1.22171
C          1.42684       -0.04057        0.64168
O          0.37458        0.41191        1.08987
O          2.63230        0.56360        0.46963
C          2.54510        1.81404       -0.21387
H          1.78165       -1.08551        1.19514
H          2.44321       -2.30725       -0.19480
H          0.68595       -2.50031        0.39053
H          1.70666       -0.51818       -1.74169
H         -2.07729        0.94400        1.80055
H         -3.26022       -0.28828        1.40612
H         -3.62237        1.43055        1.04213
H          3.53795        2.25027       -0.14192
H          2.26390        1.67533       -1.26033
H          1.80940        2.45549        0.27493
