18
/mnt/e/work/rmlp/database/CAMD/log/success_log/ts_138_1_S-H-2_opt.log
O          2.33238       -0.93966        1.54461
S          1.79883       -1.09872        0.24012
O          2.05210       -2.27405       -0.52258
Cl        -0.24805       -1.98237        0.86334
Cl         2.76502        0.26044       -0.94606
N          1.13815        3.31486       -0.32483
O          1.66014        2.49197        0.69393
C          0.80263        1.57519        1.26023
O          0.43582        0.51719        0.38125
P         -1.27912       -0.02286       -0.10961
Cl        -0.26671       -0.65429       -1.87543
Cl        -2.96719       -1.10450       -0.60528
Cl        -1.98067        0.35358        1.83870
Cl        -1.81391        1.78938       -0.85113
H          0.24056        3.69653       -0.02671
H          1.00841        2.75689       -1.16785
H          1.35480        1.14519        2.10503
H         -0.12893        2.04692        1.61600
