30
/mnt/e/work/rmlp/database/CAMD/log/success_log/ts_157_1_S-A-16_opt.log
C          1.67021       -2.70195        0.45657
C          2.49524       -1.91820       -0.55387
N          2.21977       -0.48367       -0.49811
S          0.74756       -0.06703       -1.20540
C         -0.38635        0.11323        0.50655
O          0.28877        0.01196        1.47155
C         -1.78816       -0.14218        0.22888
C         -2.62889       -0.31885        1.33018
C         -3.97452       -0.56212        1.13305
C         -4.48943       -0.62851       -0.15163
C         -3.65553       -0.45204       -1.24578
C         -2.30912       -0.20772       -1.06005
C          3.11091        0.33526        0.17623
C          2.83117        1.80643        0.14599
O          4.07601       -0.15640        0.70862
Cl        -0.51265        2.41698        0.00153
H          1.82750       -2.30131        1.45451
H          1.97265       -3.74532        0.44461
H          0.60902       -2.64488        0.21986
H          3.55938       -2.03821       -0.34243
H          2.28676       -2.26112       -1.57073
H         -2.21412       -0.25826        2.32479
H         -4.62360       -0.69606        1.98515
H         -5.54248       -0.81320       -0.30161
H         -4.05884       -0.49958       -2.24580
H         -1.65893       -0.05569       -1.90967
H          2.69189        2.15993       -0.87386
H          1.94066        2.03864        0.72603
H          3.67973        2.31929        0.59101
H          0.57462        1.38071       -0.99276
