18
/mnt/e/work/rmlp/database/CAMD/log/success_log/ts_173_1_NO2-B-8-d_opt.log
O          0.72799        1.54758       -0.93183
S          1.14644        0.24717       -0.49369
O          2.27056       -0.35819       -1.16099
C          1.56376        0.23179        1.30329
O          2.23968       -0.93798        1.53963
C         -0.31210       -0.90974       -0.68785
N         -1.25304       -0.43419        0.21218
C         -1.99663        0.63947       -0.09911
F         -2.34940        1.39579        0.97107
O         -2.86961       -1.46530       -0.19496
H          2.14956        1.13922        1.48803
H          0.62890        0.23745        1.86042
H          2.92708       -1.04263        0.86267
H          0.04342       -1.89856       -0.41078
H         -0.56129       -0.84072       -1.75245
H         -1.75901        1.27964       -0.95281
H         -3.03631       -0.07382       -0.36645
H         -3.29863       -2.33599       -0.16726
