32
/mnt/e/work/rmlp/database/CAMD/log/success_log/ts_110_1_RR-B-8-a_opt.log
O          0.83379        1.07404        2.11574
C          0.49563        0.63438        0.91558
N         -0.93261        0.10374        1.35058
O         -1.49495       -1.13093        1.02554
O         -2.29297       -1.05222       -0.13599
C         -3.67658       -0.98813        0.17675
C         -4.39424       -0.81437       -1.15137
C          0.19141        1.81122       -0.02952
O         -0.92222        2.28572       -0.12268
O          1.26859        2.27986       -0.61735
C          1.11624        3.47586       -1.37641
C          1.29957       -0.45452        0.26082
C          0.92650       -0.95518       -0.97955
C          1.67921       -1.95578       -1.56642
C          2.80329       -2.44895       -0.92366
C          3.17487       -1.94548        0.31162
C          2.42096       -0.95057        0.90665
H         -0.50248        0.37255        2.39581
H         -1.57715        0.87172        1.07261
H         -3.88008       -0.13619        0.83975
H         -3.98598       -1.91236        0.67822
H         -5.46612       -0.77390       -0.98358
H         -4.16383       -1.64914       -1.80665
H         -4.07078        0.10530       -1.63095
H          0.90364        4.31527       -0.71213
H          2.05971        3.62751       -1.89346
H          0.29552        3.36849       -2.08846
H          0.04641       -0.57314       -1.47775
H          1.38918       -2.35189       -2.52862
H          3.38990       -3.22812       -1.38848
H          4.05101       -2.33032        0.81233
H          2.68019       -0.53475        1.86831
