25
/mnt/e/work/rmlp/database/CAMD/log/success_log/ts_127_1_NO2-A-1-e_opt.log
C          2.99793        2.00956       -0.69125
O          1.76286        1.49031       -0.22518
C          1.70424        0.17257       -0.06468
O          2.61669       -0.58635       -0.31554
C          0.40407       -0.30570        0.48882
N         -0.10812       -1.50991       -0.02415
O          0.32513       -1.89365       -1.22318
C         -0.59074        0.60837        1.04154
O         -0.33914        1.70423        1.48661
C         -2.02419        0.06468        1.02568
C         -2.49622        0.18759       -0.40759
C         -3.15973        1.49503       -0.72333
O         -2.29537       -0.67903       -1.22336
O          0.72770       -2.51120        1.15391
H          3.19133        1.66782       -1.71061
H          2.90039        3.09134       -0.66167
H          3.81596        1.67821       -0.04812
H         -0.33909       -2.51838       -1.56889
H         -2.62994        0.67274        1.69408
H         -2.01510       -0.98122        1.32370
H         -4.11432        1.55374       -0.20341
H         -3.32642        1.59345       -1.79271
H         -2.53154        2.30817       -0.36368
H          0.84367       -1.26864        1.48134
H          1.56674       -2.81497        0.77767
