13
/mnt/e/work/rmlp/database/CAMD/log/success_log/ts_111_1_R-B-10_opt.log
C         -1.14301        1.93115       -0.14784
C         -1.30913        0.56988        0.49759
C         -1.87292       -0.55754       -0.55852
O         -1.62116       -1.72056       -0.00534
C         -0.12381       -0.16902        0.87996
Br         1.40770       -0.07766       -0.10883
H         -0.42070        1.90006       -0.96070
H         -2.09715        2.26520       -0.54800
H         -0.80481        2.65925        0.58819
H         -2.02302        0.59248        1.32300
H         -1.23698       -0.31553       -1.43039
H         -2.92936       -0.43012       -0.87240
H         -0.09493       -0.83572        1.72499
