19
/mnt/e/work/rmlp/database/CAMD/log/success_log/ts_180_2_R-A-10_opt.log
O         -0.17281        0.75973        1.29460
C          0.76334       -0.47123       -0.18306
N          1.95467       -0.72143        0.24703
C          3.17143       -0.33730       -0.41890
C         -0.42658       -0.46327        0.71382
F          0.39165        2.01784       -0.62067
C         -1.73050       -0.59828       -0.09832
C         -2.53114        0.65115       -0.20068
O         -2.00206       -1.65599       -0.61034
H          0.04845        1.51963        0.42926
H          0.66336       -0.02902       -1.16737
H          2.05947       -1.07298        1.19547
H          3.81792       -1.20582       -0.54609
H          3.69542        0.41095        0.17744
H          2.93653        0.09434       -1.38902
H         -0.40064       -1.26358        1.46971
H         -1.93977        1.38949       -0.74412
H         -2.69829        1.05703        0.79503
H         -3.47036        0.47312       -0.71472
