13
/mnt/e/work/rmlp/database/CAMD/log/success_log/ts_199_2_A-E-1_opt.log
C          0.57958        0.44096        0.27825
N          1.72544        0.11295       -0.49865
C          2.78137       -0.55017        0.23179
C         -0.52461        1.03248       -0.38560
F         -1.39926        1.74169        0.29036
Cl        -1.63786       -1.29018       -0.02156
H          0.01173       -0.61755        0.48912
H          0.76388        0.84026        1.28484
H          2.06805        0.87710       -1.06564
H          2.39186       -1.47901        0.64675
H          3.18946        0.05528        1.05358
H          3.58735       -0.79230       -0.45663
H         -0.67160        1.04382       -1.45484
