12
/mnt/e/work/rmlp/database/CAMD/log/success_log/ts_165_1_A-E-17_opt.log
O          0.67565        1.95863        0.86957
N          0.38366        1.22036        0.02726
C         -0.55920       -0.34482        0.65493
C         -1.84616       -0.06834       -0.03790
O         -2.79460        0.43960        0.49293
O         -1.83275       -0.45127       -1.31720
C          0.32613       -1.27544        0.14753
F          1.19684       -1.86927        0.93572
Cl         1.97843        0.29084       -0.74759
H         -0.56585       -0.15725        1.72212
H         -2.67624       -0.22713       -1.74226
H          0.24060       -1.72306       -0.83275
