20
/mnt/e/work/rmlp/database/CAMD/log/success_log/ts_141_1_A-E-14_opt.log
C          1.07065        2.01354       -0.67233
C          0.91063        1.14644        0.53401
C          1.78293        0.09900        0.77810
Cl         0.43260       -1.59553       -0.20379
Br         3.33552       -0.13925       -0.21929
S         -1.13948        0.20321        0.39897
O         -1.64124        1.47149       -0.07114
O         -1.23786       -0.10228        1.79277
C         -2.30184       -0.96070       -0.50973
C         -3.62672       -0.25211       -0.51477
O         -4.17235        0.17037       -1.49339
O         -4.11396       -0.14346        0.71728
H          0.14578        2.55230       -0.85975
H          1.86919        2.73973       -0.51141
H          1.32094        1.41878       -1.54910
H          0.47852        1.61413        1.40918
H          1.79423       -0.42660        1.72136
H         -2.30687       -1.87060        0.08175
H         -1.92350       -1.10341       -1.51635
H         -4.93474        0.37610        0.72458
