27
/mnt/e/work/rmlp/database/CAMD/log/success_log/ts_156_1_A-E-19_opt.log
C          2.65852       -0.66653        0.32411
N          3.39848        0.43194        0.31537
C          4.62450        0.49507       -0.44943
C          1.27441       -0.55439        0.90741
O          0.65971       -1.77669        1.15387
C          0.85298        0.15008       -0.43657
O          1.11892        1.37350       -0.51078
O         -0.27023       -0.45695       -1.00184
C         -1.50167       -0.09076       -0.49049
C         -2.57826       -0.86995       -0.90424
C         -3.85003       -0.57594       -0.45412
C         -4.05685        0.48528        0.41236
C         -2.98290        1.25714        0.81679
C         -1.70243        0.97640        0.37094
H          1.76856       -0.53913       -1.09939
H          3.11115       -1.63869        0.17967
H          2.78417        1.26648        0.21417
H          5.20352       -0.41428       -0.29478
H          5.20367        1.35105       -0.11026
H          4.41818        0.60876       -1.51744
H          1.21081        0.08699        1.78774
H          0.15428       -2.02447        0.36391
H         -2.39981       -1.69060       -1.58193
H         -4.68284       -1.18134       -0.77999
H         -5.05171        0.71021        0.76605
H         -3.13636        2.09062        1.48598
H         -0.86979        1.59362        0.66801
