18
/mnt/e/work/rmlp/database/CAMD/log/success_log/ts_119_1_NO2-A-10-d_opt.log
C         -2.98423       -0.79866        0.07196
N         -1.64850       -0.36151       -0.25934
N         -1.40031        0.93334        0.26975
C         -0.25440        1.54441       -0.32430
N          1.01887        1.03732        0.17523
N          1.63874        0.09520       -0.42275
O          2.77088       -0.23918        0.20622
O          1.03891       -1.67585        0.07306
H         -3.69192       -0.07759       -0.33501
H         -3.14985       -1.76688       -0.39458
H         -3.16110       -0.88972        1.15416
H         -0.95486       -1.04051        0.06849
H         -1.34191        0.94053        1.29371
H         -0.28288        2.62001       -0.12712
H         -0.28561        1.34407       -1.39677
H          1.28985        1.27073        1.13677
H          2.30038       -1.31950        0.28646
H          0.96973       -2.16585       -0.74648
