20
/mnt/e/work/rmlp/database/CAMD/log/success_log/ts_18_1_NO2-A-8-c_opt.log
O          4.43892        0.07611        0.81170
N          3.81058       -0.25431       -0.34437
O          3.51554       -1.54554       -0.31176
C          1.34269       -0.23916       -0.22400
S         -0.18038        0.65579       -0.11263
O         -0.25876        1.29790        1.17711
O         -0.33968        1.46848       -1.28955
C         -1.47902       -0.63576       -0.13562
C         -2.78842        0.09217        0.08321
C         -3.93332       -0.82972        0.39699
O         -5.04493       -0.72511       -0.03149
H          4.73455        0.99367        0.71520
H          2.53412       -1.63699       -0.52567
H          1.85011       -0.01490       -1.14004
H          1.78183       -0.31763        0.74872
H         -1.43029       -1.13563       -1.09798
H         -1.25022       -1.32412        0.67399
H         -3.02971        0.71576       -0.77917
H         -2.65693        0.75312        0.94886
H         -3.66189       -1.64553        1.09732
