27
/mnt/e/work/rmlp/database/CAMD/log/success_log/ts_174_1_NO2-A-7-d_opt.log
O         -0.29718       -1.22048        1.37263
N          0.48385       -0.15341        1.21736
C          1.14750       -0.10817       -0.00448
C          1.27132       -1.39866       -0.79939
O          0.68159       -1.56623       -1.83384
O          2.06057       -2.28361       -0.22734
C          2.39093        0.73860       -0.01584
O          3.22065        0.67075       -0.88101
O          2.43784        1.57530        1.00781
S         -0.01420        0.95297       -1.20701
O          0.16540        2.33212       -0.79260
C         -1.59836        0.45060       -0.51761
C         -2.20507       -0.69653       -0.99716
C         -3.43499       -1.06686       -0.48102
C         -4.04094       -0.28946        0.49324
C         -3.42679        0.86448        0.95492
C         -2.19805        1.24157        0.44479
O          1.52340       -0.75095        2.56261
H          2.10430       -3.10641       -0.74245
H          3.20887        2.16053        0.93106
H         -1.70953       -1.29164       -1.74778
H         -3.91899       -1.96404       -0.83592
H         -4.99757       -0.58602        0.89735
H         -3.90261        1.46557        1.71511
H         -1.68865        2.13244        0.77846
H          0.46809       -1.37303        2.41295
H          1.50494       -0.07956        3.25121
