21
/mnt/e/work/rmlp/database/CAMD/log/success_log/ts_139_1_S-G-6_opt.log
C          2.60363        1.95742       -0.07722
O          3.42320        0.80051       -0.02987
C          2.79401       -0.31124        0.49382
O          1.77770       -0.79623       -0.34377
S         -0.13013       -0.48689       -0.05597
O          0.06601       -0.12531        1.31020
O         -0.21341        0.39890       -1.15993
O         -1.78076       -1.01007        0.05308
C         -2.64800       -0.16783        0.69854
Cl        -2.89353        1.34164       -0.20310
N          0.10201       -2.26478       -0.50543
H          2.28119        2.23794        0.93153
H          3.22165        2.74273       -0.50598
H          1.72071        1.78706       -0.69835
H          2.34827       -0.09333        1.48087
H          3.57091       -1.08059        0.58580
H         -2.25977        0.11891        1.68175
H         -3.62037       -0.66120        0.77219
H          1.26971       -1.94328       -0.45361
H         -0.34189       -2.86414        0.18110
H         -0.31207       -2.42083       -1.41752
