23
/mnt/e/work/rmlp/database/CAMD/log/success_log/ts_103_1_NO2-B-7-e_opt.log
O          0.38838       -1.97142        1.49741
S          1.16321       -1.96652        0.24990
C         -0.09010       -1.58596       -1.10024
N         -1.19677       -0.89028       -0.85913
C         -1.43122       -0.20038        0.32819
Br        -3.13692        0.74415        0.21314
C          2.01690       -0.35706        0.20741
C          1.93574        0.47879        1.30492
C          2.59297        1.69709        1.28258
C          3.33776        2.05803        0.17191
C          3.43688        1.20040       -0.91318
C          2.77876       -0.01679       -0.89780
O         -0.38240        0.45850       -2.03639
H         -0.25346       -2.44865       -1.74331
H         -1.51914       -0.92228        1.15128
H         -0.68089        0.54969        0.59350
H          1.35530        0.16520        2.16086
H          2.52295        2.36103        2.13074
H          3.84759        3.00926        0.15255
H          4.02656        1.48084       -1.77267
H          2.85404       -0.69437       -1.73572
H          0.39978       -0.67925       -1.85052
H         -0.50841        1.28840       -2.52194
