18
/mnt/e/work/rmlp/database/CAMD/log/success_log/ts_1_1_S-C-2-ab_opt.log
O          2.81877       -1.03104        0.39276
N          1.97685       -0.24708        0.54442
O          1.30768        0.19878        1.37663
O          0.72675       -0.46648       -0.99029
C         -0.51180       -0.21659       -0.56355
C         -1.40494       -1.28136       -0.39218
C         -2.68326       -1.04081        0.06249
C         -3.08551        0.25093        0.37196
C         -2.20209        1.30656        0.21813
C         -0.92119        1.08324       -0.24745
O          2.35675        1.18121       -0.61306
H         -1.07182       -2.27907       -0.63468
H         -3.37128       -1.86423        0.18423
H         -4.08636        0.43158        0.73413
H         -2.51281        2.31112        0.46351
H         -0.22758        1.90226       -0.36855
H          3.16751        1.00752       -1.09881
H          1.43754        0.54875       -1.11546
