32
/mnt/e/work/rmlp/database/CAMD/log/success_log/ts_158_1_R-A-4_opt.log
C         -3.44530       -1.60657       -0.12946
C         -2.44609       -0.64387       -0.68399
O         -2.52184       -0.02730       -1.70225
O         -1.37116       -0.53091        0.17025
C         -0.26300        0.06610       -0.29622
O          0.79560       -1.70244       -0.51967
C          1.10278       -2.16938        0.77278
C          1.77559       -1.14134        1.68974
C          0.88554        0.07833        1.96211
C          0.67266        0.72980        0.61630
N         -0.30887        1.77763        0.34805
C          0.11127        2.84833       -0.52729
C         -1.28728        2.13379        1.34388
Cl         2.83977        0.05540       -1.51002
H         -3.52111       -1.50006        0.94884
H         -3.09674       -2.61522       -0.34769
H         -4.41051       -1.45623       -0.60318
H         -0.18601        0.22193       -1.36468
H          0.15559       -2.50356        1.21336
H          1.76504       -3.04017        0.68074
H          2.69661       -0.80838        1.20969
H          2.02711       -1.63304        2.62984
H         -0.05519       -0.24316        2.41196
H          1.38949        0.76511        2.64351
H          1.63380        0.92315        0.12524
H          0.84359        2.46924       -1.23695
H          0.56721        3.66160        0.04462
H         -0.74805        3.23383       -1.07626
H         -1.70240        1.23493        1.79543
H         -0.84435        2.75110        2.13155
H         -2.09700        2.69039        0.87096
H          1.61113       -1.22261       -0.91668
