16
/mnt/e/work/rmlp/database/CAMD/log/success_log/ts_106_1_RR-B-1-b_opt.log
C          1.95293       -0.93619       -0.41364
C          0.45702       -0.78326       -0.23203
C          0.06625        0.66789       -0.36759
O          0.76223        1.50332       -0.88399
C         -1.26831        1.07085        0.23234
Br        -2.64834       -0.28197        0.05834
C          2.75401       -0.30660        0.51814
O          2.79609        0.36049        1.48519
O          4.15411       -0.29566       -0.45863
H          3.12253       -0.36668       -1.15074
H          2.27735       -1.88704       -0.81137
H          0.10428       -1.16416        0.73228
H         -0.06574       -1.34299       -1.01204
H         -1.63557        1.98434       -0.23527
H         -1.13103        1.24149        1.30238
H          4.54911        0.58274       -0.43091
