28
/mnt/e/work/rmlp/database/CAMD/log/success_log/ts_187_1_NO2-A-7-a_opt.log
N         -3.96456       -1.37049        0.09462
C         -2.82302       -0.70832       -0.15875
O         -2.43012       -0.47863       -1.28687
C         -2.06268       -0.23020        1.06591
C         -0.72674        0.33256        0.65218
N         -0.94883        2.23683        0.70183
O         -2.03188        2.51491        1.06613
S          0.03781       -0.98519       -0.57334
O         -0.12701       -2.23679        0.16152
C          1.73907       -0.44691       -0.22769
C          2.17889        0.77979       -0.69883
C          3.49021        1.15703       -0.46645
C          4.34756        0.31162        0.22193
C          3.89907       -0.91515        0.68317
C          2.58881       -1.29841        0.45247
O         -0.86476        2.16635       -1.08414
H         -4.24627       -1.60678        1.02903
H         -4.48830       -1.74801       -0.67802
H         -1.95818       -1.04908        1.77954
H         -2.66085        0.56136        1.54527
H          0.00249        0.35518        1.45667
H          1.50156        1.43644       -1.22188
H          3.84463        2.11265       -0.82183
H          5.36982        0.61120        0.39964
H          4.56775       -1.57253        1.21863
H          2.20714       -2.24854        0.79595
H         -0.75197        1.01845       -0.45557
H         -1.75580        2.20960       -1.44592
