16
/mnt/e/work/rmlp/database/CAMD/log/success_log/ts_196_1_R-B-3_opt.log
O         -1.27841       -0.35368       -1.43014
C         -1.59719       -0.15399       -0.28025
O         -2.55257       -0.87616        0.31479
C         -1.15445        0.92624        0.61988
C         -0.12073        1.80228        0.55535
C          1.08877        1.66680       -0.17045
C          1.39304        0.59718       -0.96236
C          1.31900       -0.88185        0.38553
F          2.52325       -1.30897        0.16524
N          0.33139       -1.02288        0.98628
H         -2.83408       -1.59940       -0.26639
H         -1.86483        1.06083        1.42617
H         -0.13600        2.61029        1.27662
H          1.87511        2.36385        0.09412
H          0.61764        0.07999       -1.50925
H          2.39034        0.52416       -1.37573
