25
/mnt/e/work/rmlp/database/CAMD/log/success_log/ts_119_1_S-B-7_opt.log
C         -3.03624        0.35934        0.52952
N         -2.77177       -1.05194        0.32299
N         -1.76558       -1.36065       -0.62420
C         -0.47472       -1.59787       -0.00426
C          0.24401       -0.40699        0.60182
N          2.16541       -0.53904       -0.35619
O          2.06957       -1.34155       -1.17698
C          0.16710        0.86020       -0.16440
O         -0.15516        0.98725       -1.32090
O          0.54015        1.90296        0.61199
C          0.57504        3.16817       -0.02891
O          2.60599       -1.30051        1.22873
H         -2.20002        0.81178        1.06499
H         -3.93022        0.45754        1.14204
H         -3.18377        0.91205       -0.41021
H         -3.62033       -1.51944        0.01158
H         -1.67893       -0.64581       -1.34937
H          0.15646       -2.01832       -0.80640
H         -0.62131       -2.36635        0.75755
H         -0.00279       -0.20234        1.64875
H          1.26088        3.14356       -0.87797
H         -0.41941        3.44065       -0.38904
H          0.91667        3.87875        0.71904
H          3.17553       -0.63560        1.62355
H          1.41536       -0.87741        1.12186
