10
/mnt/e/work/rmlp/database/CAMD/log/success_log/ts_155_2_RR-B-5-a_opt.log
O         -2.84855        0.20896        0.70537
N         -1.99360        0.28857       -0.12018
C         -0.74665        1.21913        0.19555
O         -0.34961        1.83744       -0.94635
C          0.12236        0.24112        0.78921
Cl        -1.08196       -1.54411       -0.42572
Br         1.79677       -0.11094        0.08621
H         -1.14707        1.96813        0.88463
H          0.02536        1.19169       -1.56322
H         -0.08568       -0.17970        1.75873
