29
/mnt/e/work/rmlp/database/CAMD/log/success_log/ts_167_1_NO2-A-7-c_opt.log
O          4.29488        0.61684       -0.41361
N          3.39972        1.29210       -1.22253
O          2.63021        0.41713       -1.84823
C          1.29861        1.02426        0.18687
S          0.03366        0.80554        1.38400
O          0.48447       -0.36501        2.15805
C         -1.12157        0.07173        0.15264
C         -2.20814        0.73619       -0.42490
N         -2.48804        2.06426       -0.27671
C         -1.91332        2.95687        0.69624
C         -3.04529       -0.01820       -1.26698
C         -2.80767       -1.34853       -1.52071
C         -1.71471       -1.98834       -0.95464
C         -0.87350       -1.26651       -0.12316
C          0.34830       -1.96106        0.39510
O          1.45069       -1.79815       -0.08126
O          0.06035       -2.93549        1.24982
H          4.85427        1.29338       -0.01424
H          2.59311       -0.45823       -1.39769
H          2.10214        0.35350        0.38878
H          1.07768        1.56114       -0.70659
H         -3.38574        2.33948       -0.64191
H         -0.83593        3.03931        0.54990
H         -2.10114        2.63366        1.72512
H         -2.35306        3.94223        0.55524
H         -3.89811        0.47197       -1.71510
H         -3.47616       -1.89841       -2.16538
H         -1.51396       -3.02807       -1.15612
H          0.87532       -3.35412        1.56766
