15
/mnt/e/work/rmlp/database/CAMD/log/success_log/ts_139_1_RR-A-8-c_opt.log
N          1.22524        0.15895       -0.12304
C          1.76786       -1.16080        0.02715
C          0.03423        0.60684        0.13470
O          0.03600        1.85254       -0.17891
C         -1.15540       -0.11658        0.66519
C         -1.84378       -0.89894       -0.45561
H          1.28196        1.45480       -0.46888
H          1.72526       -1.70243       -0.92241
H          2.81296       -1.07631        0.32608
H          1.22602       -1.73553        0.78248
H         -1.84546        0.61582        1.08540
H         -0.83790       -0.80105        1.45578
H         -2.71721       -1.41628       -0.06660
H         -2.16227       -0.22147       -1.24409
H         -1.16556       -1.63361       -0.88370
