25
/mnt/e/work/rmlp/database/CAMD/log/success_log/ts_126_1_RR-A-6_opt.log
C         -0.53424        1.40878       -0.30088
N         -1.38062        0.26671       -0.17502
C         -2.77086        0.46652       -0.49939
C         -3.63479       -0.54913        0.21179
O         -3.27509       -1.23398        1.13013
O         -4.87319       -0.58460       -0.28692
C          0.86031        1.40366       -0.04006
O          1.18684        2.63203        0.26211
C          1.82029        0.32907       -0.02979
C          1.46704       -0.96719       -0.42127
C          2.41858       -1.96633       -0.43147
C          3.72819       -1.69327       -0.06231
C          4.08900       -0.40918        0.31734
C          3.14342        0.59481        0.34289
H         -0.17918        2.76830        0.20692
H         -0.78058        1.95913       -1.20842
H         -1.28319       -0.19193        0.72604
H         -3.14819        1.46096       -0.20096
H         -2.92950        0.36824       -1.57981
H         -5.41586       -1.22951        0.19470
H          0.45096       -1.16998       -0.72061
H          2.14276       -2.96698       -0.73084
H          4.46636       -2.48183       -0.06984
H          5.10908       -0.19690        0.60229
H          3.40162        1.59946        0.64203
