13
/mnt/e/work/rmlp/database/CAMD/log/success_log/ts_152_1_RR-B-5-a_opt.log
C         -1.55911        1.93077        0.33291
C         -0.41853        1.21824       -0.27598
Cl        -1.51323       -0.98984       -0.50598
C          0.66336        0.76970        0.47643
C          1.92034        0.58813       -0.15177
N          2.93570        0.42965       -0.65617
N          0.04027       -1.00961        0.75834
O          0.80016       -1.84947        0.49565
H         -1.72264        1.61184        1.35917
H         -2.46798        1.79355       -0.24645
H         -1.33017        3.00030        0.33893
H         -0.33303        1.22846       -1.35393
H          0.70932        1.00769        1.53395
