26
/mnt/e/work/rmlp/database/CAMD/log/success_log/ts_188_1_A-E-8_opt.log
C         -0.50648        0.25267       -0.90662
C         -1.92283        0.14997       -1.33967
C         -2.26035        0.07918        0.19360
C         -3.38714        1.01168        0.61090
O         -2.16639       -1.09747        0.71679
C          0.08915       -1.00535       -0.52949
C          1.42138       -1.04083        0.13284
O          2.18918       -1.96110       -0.01982
C          1.73751        0.10492        1.09242
N          1.84702        1.37676        0.38820
C          2.99230        1.41423       -0.50518
H         -1.24553        0.69752        0.51537
H          0.04914        1.17404       -0.95522
H         -2.32158        1.02806       -1.83588
H         -2.18257       -0.76232       -1.86587
H         -3.22674        2.02002        0.24085
H         -4.31544        0.61796        0.20253
H         -3.45969        1.02562        1.69523
H         -0.75684       -1.39661        0.24222
H          0.00653       -1.78377       -1.29079
H          0.91835        0.17942        1.81367
H          2.66270       -0.16034        1.62994
H          1.93514        2.12342        1.07263
H          2.86050        0.65507       -1.27598
H          3.94572        1.22088        0.00442
H          3.03767        2.39341       -0.97910
