28
/mnt/e/work/rmlp/database/CAMD/log/success_log/ts_114_1_RR-A-13-c_opt.log
C          1.21016        0.46812       -0.49397
N          2.56477        0.85730       -0.82142
C          3.35511       -0.17530       -1.39821
F          3.80159       -1.01829       -0.40114
C          1.03330       -0.10301        0.83044
C          1.95175        0.27491        1.91709
C         -0.12636       -0.96057        1.11409
C         -1.38844       -0.56612        0.39176
C         -2.30105       -1.51935       -0.02699
C         -3.50539       -1.15330       -0.59651
C         -3.79952        0.19696       -0.76850
C         -2.90967        1.16111       -0.37371
C         -1.66238        0.82720        0.21729
O         -0.80615        1.70950        0.55476
H          0.72553       -0.14968       -1.27006
H          0.54154        1.39488       -0.40390
H          2.60803        1.71081       -1.35729
H          2.81019       -0.83343       -2.10247
H          4.25070        0.23871       -1.87208
H          2.94951        0.46084        1.52879
H          1.97647       -0.48232        2.69811
H          1.59614        1.20579        2.36454
H         -0.30213       -0.99788        2.19392
H          0.12534       -1.98114        0.80329
H         -2.07434       -2.56892        0.11121
H         -4.21579       -1.90855       -0.89704
H         -4.73844        0.48483       -1.22084
H         -3.11636        2.20966       -0.53072
