22
/mnt/e/work/rmlp/database/CAMD/log/success_log/ts_164_3_R-B-10_opt.log
C         -0.98726        1.97024        1.14838
C         -0.49251        1.41971       -0.17480
C         -0.57905       -0.12565       -0.34239
C         -2.06059       -0.52401       -0.18116
O         -3.00142        0.13805       -0.50065
O         -0.26201       -0.57904       -1.53740
C          1.70036       -0.72828       -0.23447
C          2.62471        0.28898       -0.24102
N          3.40987        1.13831       -0.22652
C          0.53773       -0.74103        0.66154
C          0.17590       -2.15843        1.09827
H         -0.38380        1.63862        1.99060
H         -0.93273        3.05623        1.11259
H         -2.02296        1.69103        1.32441
H          0.54371        1.70873       -0.36084
H         -1.12008        1.80436       -0.98258
H         -2.17972       -1.57543        0.13916
H          1.86317       -1.56371       -0.89841
H          0.67319       -0.08865        1.52494
H         -0.05529       -2.77565        0.23315
H          1.01530       -2.60440        1.63007
H         -0.67824       -2.14048        1.77081
