25
/mnt/e/work/rmlp/database/CAMD/log/success_log/ts_22_2_A-E-9_opt.log
C         -1.18803       -1.79754       -1.03764
C         -1.28950       -0.48553       -0.50071
C         -2.46180       -0.06904        0.35073
O         -2.71400        1.30320        0.31175
O         -3.20157        1.66815       -0.98714
C         -0.07934       -1.24689        0.59981
O         -0.55004       -1.43684        1.72050
C          1.12831       -0.45888        0.22679
C          1.95549       -0.76866       -0.84473
C          3.07192        0.00631       -1.10327
C          3.37684        1.08554       -0.29094
C          2.56031        1.38770        0.78617
C          1.43827        0.62331        1.04510
H          0.00161       -2.27018       -0.07145
H         -0.66217       -1.96758       -1.96340
H         -1.91795       -2.53791       -0.74911
H         -0.84628        0.33200       -1.05380
H         -2.21163       -0.26353        1.40989
H         -3.36543       -0.63652        0.09159
H         -3.63458        2.51269       -0.80949
H          1.73645       -1.61769       -1.47674
H          3.71033       -0.23956       -1.93906
H          4.25113        1.68533       -0.49475
H          2.79523        2.22472        1.42641
H          0.79327        0.84423        1.88109
