19
/mnt/e/work/rmlp/database/CAMD/log/success_log/ts_25_1_NO2-A-1-d_opt.log
O         -3.28217       -0.96657        0.18730
N         -2.58453       -0.01961       -0.39070
C         -1.70349        0.67533        0.52730
C         -0.43145       -0.15137        0.64754
O          0.09412       -0.44958        1.67911
O          0.02730       -0.49974       -0.56234
C          1.22243       -1.25257       -0.57754
C          2.45724       -0.40891       -0.32042
O          3.58403       -0.82253       -0.25310
O          2.14265        0.87686       -0.18582
O          3.25445        1.69344        0.04996
O         -4.02383        0.95163       -0.60283
H         -2.13404        0.79127        1.52774
H         -1.44310        1.63897        0.08641
H          1.19731       -2.04269        0.18444
H          1.30024       -1.70338       -1.56998
H          4.00620        1.05627        0.08912
H         -4.28708       -0.15929       -0.20328
H         -4.18867        1.11330       -1.53913
