24
/mnt/e/work/rmlp/database/CAMD/log/success_log/ts_203_1_NO2-A-8-e_opt.log
C          3.94243       -0.13521        0.18198
O          2.88207        0.25328       -0.68525
C          1.77063        0.66209       -0.10242
O          1.63330        0.84557        1.08188
C          0.65961        0.94190       -1.10545
C         -0.62695        0.60468       -0.39824
N         -1.75442        1.24894       -0.74578
O         -2.89476        0.56079       -0.53089
S         -0.68989       -1.19518       -0.01510
C         -1.40028       -1.30178        1.64507
O         -1.54619       -1.85587       -0.96003
O          0.68014       -1.63683        0.03148
O         -1.53723        2.18799        0.95287
H          4.15540        0.65809        0.90102
H          4.80316       -0.32319       -0.45420
H          3.65431       -1.04020        0.71895
H          0.67289        1.99713       -1.38458
H          0.80365        0.32646       -1.99368
H         -3.61680        1.12779       -0.85110
H         -2.34819       -0.78043        1.62964
H         -1.53873       -2.34712        1.89112
H         -0.69389       -0.83323        2.31797
H         -0.52294        1.21279        0.73052
H         -1.86104        2.91279        1.51012
