11
/mnt/e/work/rmlp/database/CAMD/log/success_log/ts_222_1_A-I-3_opt.log
N          1.86183       -0.07766       -1.02355
C          1.53247       -0.11040        0.19931
O          1.70036       -0.17320        1.34362
N         -0.29575       -0.01085       -0.37500
C         -0.85813        1.16167       -0.09035
N         -1.25631        2.21333        0.12242
C         -0.99962       -1.19742       -0.18690
O         -2.11495       -1.30874        0.21913
H          2.83549       -0.09316       -1.30269
H          0.62555        0.00593       -1.32184
H         -0.36116       -2.05411       -0.47696
