19
/mnt/e/work/rmlp/database/CAMD/log/success_log/ts_291_2_A-E-2_opt.log
C         -1.46061        1.33888       -0.69507
C         -1.37526        0.65974        0.52391
C         -1.56463       -0.82066        0.67678
N         -1.14377       -1.63361       -0.44584
O          0.67407        0.72900        0.07006
C          2.01622        0.50942        0.33605
N          2.58618       -0.69519       -0.23389
H         -0.13870        1.29331       -0.81207
H         -1.68597        2.39419       -0.67630
H         -1.83962        0.80826       -1.55796
H         -1.31390        1.22580        1.44087
H         -1.01429       -1.16317        1.55790
H         -2.63037       -1.01216        0.86313
H         -1.71410       -1.44087       -1.26261
H         -0.18851       -1.37214       -0.67388
H          2.14918        0.45426        1.42638
H          2.60625        1.36170       -0.03496
H          2.48301       -0.68914       -1.24388
H          2.10335       -1.51479        0.12092
