12
/mnt/e/work/rmlp/database/CAMD/log/success_log/ts_24_1_NO2-A-10-d_opt.log
O         -1.85836       -0.87402        0.73581
N         -1.59070       -0.33634       -0.43769
N         -0.46591       -0.58743       -0.94973
O          0.70700       -0.98396       -0.21174
C          1.59529       -0.02755        0.10552
O          2.52626       -0.24519        0.80825
O          1.32234        1.13799       -0.49098
O         -1.73780        1.32620        0.40642
H         -0.24494       -0.16059       -1.84331
H          1.94158        1.82374       -0.20575
H         -2.06543        0.26839        1.09741
H         -2.48224        1.81201        0.04847
