24
/mnt/e/work/rmlp/database/CAMD/log/success_log/ts_200_2_A-F-3_opt.log
C         -3.69584       -1.94494       -0.51339
N         -2.61894       -1.57839        0.38656
C         -2.02599       -0.38688        0.25200
Cl        -0.02728        1.50540        0.71476
C         -2.21452        0.85410        0.15970
Cl        -2.85063        2.30598       -0.21781
S          0.05013       -0.84456        0.01975
O          0.03171       -1.82393        1.08001
O         -0.27021       -1.26524       -1.32453
C          1.81650       -0.36000       -0.09823
C          2.29798        0.08390       -1.30767
C          3.62573        0.47799       -1.38035
C          4.42807        0.42055       -0.25227
C          3.91578       -0.03315        0.95286
C          2.58944       -0.42794        1.03794
H         -4.42277       -1.13496       -0.54542
H         -3.33773       -2.14163       -1.52877
H         -4.17468       -2.84083       -0.12237
H         -1.95388       -2.31937        0.58375
H          1.64375        0.11263       -2.16358
H          4.02685        0.83220       -2.31758
H          5.45966        0.73366       -0.31175
H          4.54306       -0.07826        1.82989
H          2.15572       -0.78363        1.95832
