14
/mnt/e/work/rmlp/database/CAMD/log/success_log/ts_279_1_RR-B-6-b_opt.log
N          1.18897       -1.83252        0.22268
C          1.21531       -0.55726        0.00471
O          2.10270       -0.33591       -0.88544
C          0.38431        0.52662        0.64362
C          1.11749        1.86562        0.61958
C         -0.90333        0.61668       -0.13533
O         -1.26907        1.48461       -0.84651
Cl        -1.91839       -0.81641        0.10922
H          0.56936       -2.31248        0.86095
H          2.12858       -1.66416       -0.71411
H          0.14554        0.21644        1.66636
H          1.38646        2.11805       -0.40247
H          2.02595        1.79938        1.21203
H          0.48217        2.64987        1.02184
