17
/mnt/e/work/rmlp/database/CAMD/log/success_log/ts_235_1_A-H-1_opt.log
C          2.04004       -0.66657       -0.19407
O          2.30220        0.42159        0.18865
N          0.31401       -0.98797       -0.15030
C         -0.72906        0.03457        0.02172
C         -2.10340       -0.64402       -0.00732
C         -0.60597        1.03599       -1.12805
N         -0.60001        0.75065        1.27141
H          1.25958       -1.22596       -0.95204
H          0.11307       -1.86051        0.32158
H         -2.87718        0.10915        0.10451
H         -2.19378       -1.35425        0.81274
H         -2.24687       -1.17004       -0.94758
H         -1.34977        1.81668       -1.00381
H         -0.76222        0.53821       -2.08166
H          0.37959        1.49386       -1.12519
H         -0.61996        0.11577        2.06156
H          0.27227        1.26578        1.29918
