22
/mnt/e/work/rmlp/database/CAMD/log/success_log/ts_292_1_S-G-4_opt.log
C          2.50227        2.17808       -0.24202
O          1.91118        0.90985        0.02908
C          2.73641       -0.17107       -0.06880
O          3.89125       -0.08353       -0.34769
O          2.14961       -1.31666        0.22177
C          0.74404       -1.64405        0.15076
O          0.44147       -2.69181        0.60740
O          0.04798       -0.75222       -0.42590
S         -2.01958       -0.18193       -0.17389
O         -2.21758       -0.78033       -1.43684
O         -1.95530       -0.73727        1.11766
O         -3.26494        0.84001       -0.06706
O         -0.92217        1.28684       -0.22856
C         -0.92943        1.97155        1.02534
H          3.47783        2.03762       -0.70957
H          1.83660        2.71962       -0.91288
H          2.62636        2.72097        0.69627
H         -3.73627        0.91929       -0.89933
H         -0.05020        0.67322       -0.33179
H         -1.86527        2.52396        1.09806
H         -0.86747        1.25745        1.84728
H         -0.08002        2.65275        1.04379
