18
/mnt/e/work/rmlp/database/CAMD/log/success_log/ts_240_1_NO2-B-3-e_opt.log
C         -1.54909       -1.17501        1.48697
N         -0.66057       -0.90916        0.38683
C         -0.46251        0.48028       -0.00697
C         -1.63594        1.20695       -0.38058
O         -2.70218        0.63621       -0.66625
C          0.78376        1.13997        0.31552
O          0.96854        2.33100        0.17197
C          1.90523        0.21192        0.76730
Cl         2.30102       -0.87806       -0.58784
O         -1.22512       -1.40327       -0.89085
H         -2.53037       -0.69925        1.38609
H         -1.06276       -0.79766        2.38427
H         -1.66747       -2.25400        1.57448
H         -1.53526        2.29316       -0.47630
H          1.60182       -0.41400        1.60452
H          2.79708        0.79012        1.00457
H         -0.53726       -0.42070       -1.26808
H         -2.13766       -0.90264       -0.93646
