21
/mnt/e/work/rmlp/database/CAMD/log/success_log/ts_297_1_NO2-A-5-a_opt.log
N         -0.16813        2.20023        0.37712
C         -0.74319        1.31088       -0.57948
N         -1.17455        0.00510       -0.04442
C         -2.52253       -0.07052        0.42018
F         -3.39207       -0.01139       -0.64484
C         -0.39164       -1.10465        0.06600
O         -0.75440       -2.11432        0.63093
C          0.99578       -1.03332       -0.54723
N          2.48783        0.29684       -0.52798
O          3.49937       -0.23516       -0.72669
O          2.13913        0.38593        1.25886
H         -0.79270        2.38848        1.15150
H          0.71353        1.85709        0.73915
H         -1.63648        1.77603       -1.00777
H         -0.01715        1.15302       -1.37717
H         -2.77666        0.77715        1.06882
H         -2.68518       -1.02809        0.92470
H          1.46907       -2.01389       -0.48659
H          0.89287       -0.74149       -1.58880
H          1.41034       -0.40814        0.54748
H          2.83159       -0.07889        1.73768
