26
/mnt/e/work/rmlp/database/CAMD/log/success_log/ts_276_1_R-A-8_opt.log
O         -0.88511       -1.00724       -1.02084
C         -1.99899       -1.06353       -0.22125
C         -2.87183        0.19541       -0.31956
Cl        -1.93799        1.64925        0.09144
C         -1.32498       -1.25600        1.14148
C          0.06244       -1.58279        0.63610
N          1.11127        0.00105       -0.07310
C          1.72711        0.85696        0.93478
C          3.01895        0.29748        1.51874
C          1.94002       -0.50643       -1.11511
F          2.59533        0.51272       -1.78483
H          0.26482        0.41819       -0.47606
H         -2.66067       -1.91275       -0.48670
H         -3.21850        0.33160       -1.34354
H         -3.71638        0.14764        0.36796
H         -1.71681       -2.03337        1.80531
H         -1.31536       -0.31329        1.68755
H          0.14259       -2.50914        0.08803
H          0.81738       -1.53272        1.42129
H          1.93178        1.84102        0.49609
H          0.98561        0.99311        1.72685
H          3.33791        0.93029        2.34281
H          2.87938       -0.71219        1.89734
H          3.81194        0.28992        0.77565
H          1.30647       -1.02074       -1.84231
H          2.72334       -1.16517       -0.72407
