24
/mnt/e/work/rmlp/database/CAMD/log/success_log/ts_213_1_R-B-12_opt.log
C          2.47982       -1.63357       -0.65722
C          1.22635       -1.12725        0.00221
C          1.18889       -0.51014        1.26672
C          1.91452        0.65103        1.10704
C          1.83139        0.92878       -0.26972
C          0.55738        1.28398       -1.00829
C         -0.70652        1.01003       -0.23044
O         -1.04491        1.55177        0.78955
O         -1.47381        0.11944       -0.87239
N         -2.73990       -0.16895       -0.27938
C         -2.70454       -1.46516        0.36571
H          2.55549       -2.70949       -0.47405
H          3.37161       -1.15225       -0.26638
H          2.44207       -1.49402       -1.73646
H          0.36475       -1.71694       -0.32203
H          0.59026       -0.83401        2.10480
H          2.54650        1.17193        1.80930
H          2.68370        1.40417       -0.76282
H          0.57591        2.36653       -1.19158
H          0.49987        0.78031       -1.97509
H         -2.87684        0.56672        0.42268
H         -2.50227       -2.22007       -0.39303
H         -3.69238       -1.63796        0.78614
H         -1.95325       -1.53820        1.16080
