25
/mnt/e/work/rmlp/database/CAMD/log/success_log/ts_24_1_S-B-12_opt.log
O         -3.45905       -0.68052       -0.87385
N         -2.33341       -0.61850       -1.08123
C         -1.19856       -0.46451        0.79080
C         -1.41305        0.97595        0.54760
O         -2.43267        1.57523        0.81173
O         -0.36407        1.59576       -0.02136
O         -0.61796        2.95478       -0.26007
C          0.19661       -0.85941        1.24294
O          0.29784       -1.46801        2.28459
C          1.33932       -0.47695        0.39932
C          2.56396       -0.24287        1.02541
C          3.67246        0.10180        0.27755
C          3.57284        0.19482       -1.10141
C          2.36446       -0.06258       -1.73045
C          1.24559       -0.39148       -0.98973
O         -1.57018       -2.22856       -1.04761
H         -1.94126       -0.79448        1.52365
H         -1.53157        3.07144        0.09954
H          2.62248       -0.32423        2.10050
H          4.61421        0.29656        0.76817
H          4.43847        0.46559       -1.68752
H          2.29351       -0.00074       -2.80577
H          0.31444       -0.59810       -1.49296
H         -1.17101       -1.52603       -0.10326
H         -2.19836       -2.89848       -0.75345
