25
/mnt/e/work/rmlp/database/CAMD/log/success_log/ts_257_1_S-C-2-aa_opt.log
C         -3.65912        0.99288       -1.06323
N         -2.99348        0.02286       -0.21616
C         -3.74566       -0.94965        0.35294
O         -4.92472       -1.11071        0.15403
C         -1.61556        0.14696        0.01979
C         -1.01963        1.40501        0.08403
C          0.33658        1.54268        0.31594
C          1.10101        0.40221        0.46831
O          3.75909       -0.90876        0.37897
N          3.43447       -0.34851       -0.67326
O          3.90320       -0.60040       -1.73905
O          2.53360        0.57237       -0.59074
C          0.54582       -0.86329        0.41486
C         -0.80987       -0.98093        0.17153
O          2.24365        0.50632        1.82095
H         -4.59744        0.54638       -1.39080
H         -3.03603        1.22344       -1.92590
H         -3.88648        1.91088       -0.51711
H         -3.16738       -1.58352        1.04499
H         -1.61219        2.29679       -0.03581
H          0.78926        2.51918        0.34422
H          1.15421       -1.74550        0.53283
H         -1.23211       -1.96919        0.08692
H          2.95560       -0.16098        1.49548
H          2.62562        1.39629        1.81281
