31
/mnt/e/work/rmlp/database/CAMD/log/success_log/ts_228_1_NO2-B-2-d_opt.log
C         -2.66291       -1.25737        2.18029
N         -1.74232       -0.40780        1.43751
C         -2.00832       -0.28696        0.05439
N         -1.85303        0.91116       -0.60030
C         -1.30105        2.01151        0.09538
C          0.23895        1.90327        0.12902
O          0.92806        2.86807        0.29899
O          0.61809        0.64568       -0.01017
C          1.93764        0.18599       -0.01270
C          2.05794       -1.20055       -0.01985
C          3.31395       -1.77527       -0.03411
C          4.44541       -0.97521       -0.04123
C          4.31434        0.40183       -0.03664
C          3.06231        0.99569       -0.02256
N         -1.68308       -1.40805       -0.80071
O         -1.23413       -2.39859       -0.24480
O         -1.90693       -1.31673       -1.99112
O         -3.61080        1.21240       -0.73475
H         -2.38828       -1.21644        3.23218
H         -2.64794       -2.30294        1.85403
H         -3.67331       -0.86228        2.06892
H         -0.78306       -0.69283        1.61428
H         -1.62752        2.06949        1.14399
H         -1.55020        2.93641       -0.42637
H          1.16972       -1.81354       -0.02196
H          3.40628       -2.85035       -0.04131
H          5.42631       -1.42552       -0.05238
H          5.19226        1.02975       -0.04503
H          2.96896        2.06868       -0.01837
H         -3.39463        0.04802       -0.20351
H         -3.89339        1.24015       -1.65705
