14
/mnt/e/work/rmlp/database/CAMD/log/success_log/ts_201_2_E-2-a_opt.log
O          2.77628        0.43774        0.00679
C          1.63524       -0.10574       -0.08139
C          1.43359       -1.55729       -0.26891
N          0.75255        0.88423        0.00208
C         -0.60692        0.95689        0.04569
O         -1.20916        1.99988        0.05744
C         -1.37416       -0.37578        0.16492
O         -1.25475       -1.14340        1.08396
O         -2.20695       -0.55391       -0.85061
H          1.98518        1.48185        0.10159
H          0.80006       -1.74202       -1.13509
H          0.93489       -1.97128        0.60749
H          2.39739       -2.04091       -0.40433
H         -2.75521       -1.34825       -0.72671
