18
/mnt/e/work/rmlp/database/CAMD/log/success_log/ts_246_2_S-A-4_opt.log
O         -3.74728        0.37113       -0.86951
C         -3.64050        0.17412        0.30469
C         -2.29908       -0.01324        0.98032
N         -1.23369        0.08570       -0.01053
C         -0.19542       -1.01883       -0.07900
O          0.17555       -1.41143       -1.13549
O          0.94551        0.55927        0.53599
C          2.07900        0.88411        0.01284
O          2.37581        1.97918       -0.41274
C          3.09631       -0.26780       -0.02608
O          2.93611       -1.32149        0.52262
H         -4.50401        0.11608        0.98438
H         -2.28752       -0.99452        1.46657
H         -2.18686        0.74244        1.76360
H         -1.65042        0.24284       -0.94168
H         -0.06567       -1.49703        0.89397
H         -0.40582        0.84409        0.22145
H          4.00871       -0.01735       -0.59823
