26
/mnt/e/work/rmlp/database/CAMD/log/success_log/ts_28_3_S-C-7_opt.log
C         -3.79529        1.58741        0.39246
C         -3.53371        0.26575       -0.27024
O         -4.39143       -0.49743       -0.62954
C         -2.06888       -0.02534       -0.44089
C         -1.31786        0.75732       -1.31587
C          0.04260        0.56964       -1.42738
C          0.66772       -0.43560       -0.66985
S          2.46184        0.05626        0.01825
O          3.12501        1.18383       -0.54377
O          3.01808       -0.84999        0.97215
Cl         1.28892        1.19397        1.44260
C         -0.10270       -1.22592        0.20214
C         -1.47000       -1.05051        0.30965
C         -2.28296       -1.88572        1.24438
O          2.83023       -1.08061       -1.45637
H         -3.19982        1.66984        1.29947
H         -4.85277        1.69273        0.61973
H         -3.48598        2.39184       -0.27209
H         -1.80585        1.52503       -1.89704
H          0.64614        1.19942       -2.06265
H          0.40021       -1.96001        0.81515
H         -2.62213       -1.27954        2.08372
H         -1.69531       -2.71195        1.63305
H         -3.16366       -2.27712        0.73970
H          3.51295       -1.75045       -1.36025
H          1.47650       -1.08595       -1.30117
