11
/mnt/e/work/rmlp/database/CAMD/log/success_log/ts_226_1_S-B-3-a_opt.log
O         -1.39644        1.96578       -0.45572
C         -0.52576        1.72121        0.42893
C          0.37434        0.73798       -0.07665
Br        -0.66103       -1.04931        0.03513
O          1.61384        0.58177        0.46755
C          2.52560       -0.13772       -0.33685
H         -0.67469        1.08374       -1.16667
H         -0.47759        2.30336        1.34124
H          3.46855       -0.14609        0.20461
H          2.65869        0.34081       -1.31168
H          2.17660       -1.16517       -0.48423
