27
/mnt/e/work/rmlp/database/CAMD/log/success_log/ts_254_2_R-A-6_opt.log
N         -0.68998       -0.56675        1.30731
C         -1.91918        0.07176        0.87207
N         -2.69769       -0.68062       -0.08215
C         -1.94470       -1.64197       -0.87720
C         -1.16952        1.21417        0.30477
C         -1.32926        1.68510       -1.08637
O          0.84688        0.39239       -0.33166
C          2.02287        0.85613        0.21641
N          2.97215       -0.18635        0.54739
C          3.47601       -0.89878       -0.61375
H          0.22277       -0.28416        0.45514
H         -0.42496       -0.26996        2.23891
H         -2.57061        0.35959        1.71056
H         -3.44313       -1.17294        0.39746
H         -1.60257       -2.50207       -0.29119
H         -1.06766       -1.16038       -1.29958
H         -2.59042       -1.99156       -1.68218
H         -0.72905        1.89387        1.01858
H         -0.54190        2.37294       -1.37661
H         -1.37194        0.86279       -1.79089
H         -2.29939        2.19140       -1.12746
H          1.83324        1.41698        1.15281
H          2.51071        1.53584       -0.49791
H          2.52265       -0.84910        1.17505
H          4.02205       -0.19158       -1.23843
H          4.16199       -1.67403       -0.27607
H          2.68447       -1.35911       -1.21831
