14
/mnt/e/work/rmlp/database/CAMD/log/success_log/ts_22_1_A-E-4_opt.log
C         -0.27066        1.22508        0.50714
C          0.28005        1.58578       -0.73084
S          1.94413       -0.38535        0.08200
C         -1.61584        0.48291        0.48144
O         -1.66961       -0.52836       -0.48859
O         -0.99603       -1.68874       -0.05175
H          0.52775        0.39170        0.90826
H         -0.20520        1.97090        1.29753
H          1.06023        2.32021       -0.80701
H         -0.04759        1.09787       -1.63266
H          2.83704       -1.35340        0.33157
H         -2.40805        1.17494        0.18079
H         -1.85058        0.07958        1.47333
H         -0.05594       -1.54201       -0.28744
