17
/mnt/e/work/rmlp/database/CAMD/log/success_log/ts_296_1_NO2-B-12-d_opt.log
C          1.81443       -0.53402        1.55262
C          1.66408       -0.57424        0.06320
O          2.36699       -1.18121       -0.69508
C          0.49822        0.25008       -0.44205
F          0.14464       -0.03886       -1.74015
N         -0.46167        0.61198        0.41417
C         -1.83842        0.59342        0.01896
C         -2.33623       -0.75594        0.21385
N         -2.72194       -1.81917        0.36301
O          0.14439        2.38230        0.22899
H          1.03839       -1.15566        1.99568
H          1.67776        0.47805        1.92031
H          2.78866       -0.92417        1.83327
H         -2.39429        1.26418        0.68110
H         -2.00260        0.87133       -1.03279
H          0.95958        1.49764       -0.45730
H          0.01248        3.28419        0.57002
