27
/mnt/e/work/rmlp/database/CAMD/log/success_log/ts_2_1_S-B-9_opt.log
C          2.75477        2.06029       -0.16855
N          2.35094        1.04259        0.77833
C          0.94584        0.77105        0.83900
C          0.34991       -0.00244       -0.39284
N          1.08789       -1.67709        0.27128
O          2.16174       -1.84205       -0.17517
C         -1.06348        0.55673       -0.62713
O         -1.23521        1.29585       -1.57854
N         -2.02522        0.23670        0.25311
C         -1.88943       -0.67922        1.35905
C         -3.31858        0.87252        0.13683
O         -0.15369       -2.50156       -0.72979
H          3.82353        2.23180       -0.05581
H          2.55437        1.80872       -1.21927
H          2.22547        2.98411        0.06544
H          2.88874        0.19339        0.64062
H          0.75345        0.19734        1.74922
H          0.43444        1.73542        0.92276
H          0.95412        0.26169       -1.26804
H         -2.79305       -1.28832        1.41718
H         -1.04197       -1.34358        1.22611
H         -1.78317       -0.13386        2.30120
H         -4.09475        0.12297       -0.03027
H         -3.29278        1.55794       -0.70761
H         -3.54973        1.42608        1.04938
H         -0.11650       -1.16741       -0.72973
H          0.28568       -2.89314       -1.49024
