22
/mnt/e/work/rmlp/database/CAMD/log/success_log/ts_295_1_A-E-16_opt.log
C         -1.89592       -1.91848        1.18740
C         -1.92612       -1.25199       -0.16631
O         -2.90642       -0.66392       -0.58219
C         -0.67092       -1.36613       -0.91965
C         -0.52987        0.96425       -0.54828
C         -0.92592        1.56073        0.76714
N         -1.51513        2.86998        0.53817
C          0.85348        1.09359       -1.00806
S          1.18666       -0.45584       -0.11964
Cl         3.28884       -0.28942        0.36857
H         -2.74919       -1.60690        1.78386
H         -1.94272       -2.99745        1.05107
H         -0.96638       -1.68258        1.69986
H         -0.73171       -1.12815       -1.97289
H         -0.19237       -2.32245       -0.74837
H         -1.33029        0.91076       -1.27389
H         -0.05876        1.67446        1.42234
H         -1.67457        0.95149        1.27584
H         -0.90044        3.46197       -0.00936
H         -2.40474        2.78906        0.05951
H          1.44893        1.87704       -0.54656
H          1.03418        1.01613       -2.07604
