20
/mnt/e/work/rmlp/database/CAMD/log/success_log/ts_277_1_S-B-5-a_opt.log
O         -0.41531       -0.60310        1.35641
C         -0.06480        0.02928        0.40880
O         -0.79811        0.44424       -0.64856
O         -2.61217        0.60812       -0.19403
C         -3.19882       -0.61345       -0.20147
C          1.26601        0.51229       -0.05152
C          1.61411        1.95474        0.18535
N          2.30067       -0.36310       -0.23800
C          2.08968       -1.78743       -0.29933
H          0.14206        0.76657       -1.21003
H         -3.24312       -1.06382       -1.20847
H         -2.72224       -1.32082        0.49577
H         -4.23501       -0.47020        0.14318
H          0.71517        2.56472        0.21744
H          2.12351        2.05243        1.14647
H          2.27909        2.33640       -0.58938
H          3.08516       -0.01360       -0.77269
H          3.04921       -2.28911       -0.19296
H          1.62986       -2.09931       -1.24464
H          1.43913       -2.08824        0.51976
