19
/mnt/e/work/rmlp/database/CAMD/log/success_log/ts_209_1_NO2-A-8-b_opt.log
O          2.61015        1.04619       -1.36275
N          1.37701        0.84278       -1.23637
C          1.18161        0.35521        0.00457
C          1.53241       -1.12023        0.28364
C          1.24475       -1.51313        1.68908
O          2.01826       -1.80937       -0.55816
S         -0.43126        0.96812        0.60661
O         -0.27911        2.38124        0.74924
O         -0.95450        0.23746        1.71767
C         -1.56783        0.68690       -0.84744
N         -1.95620       -0.70723       -0.73424
O         -1.03849       -1.47817       -0.55522
O         -3.12063       -0.99088       -0.77904
H          2.64341        0.66568        0.04924
H          1.47074       -0.71831        2.39321
H          0.18233       -1.73794        1.77681
H          1.81222       -2.41312        1.91577
H         -0.95973        0.86644       -1.73241
H         -2.42561        1.35421       -0.78709
