25
/mnt/e/work/rmlp/database/CAMD/log/success_log/ts_201_1_A-E-16_opt.log
C          1.19061        2.99680       -0.61644
N          0.08461        2.45628        0.13829
C          0.30094        1.40880        0.97317
C         -0.89385       -0.26656       -0.45299
C         -2.16950       -0.14569        0.31615
N         -3.25891       -0.68448       -0.49632
C         -4.53377       -0.66077        0.18981
C         -0.08422       -1.46572       -0.35855
S          1.37625       -0.40138        0.05388
Cl         3.30493       -1.43789        0.06611
H          0.89694        3.95333       -1.04429
H          2.03673        3.14799        0.05132
H          1.50445        2.32421       -1.42006
H         -0.78350        2.43083       -0.38183
H          1.22162        1.51839        1.53084
H         -0.52690        1.10232        1.58682
H         -0.87560        0.25016       -1.40133
H         -2.43221        0.90176        0.51081
H         -2.08262       -0.66598        1.28743
H         -3.03331       -1.63682       -0.76998
H         -5.29044       -1.09760       -0.45874
H         -4.80345        0.37690        0.38990
H         -4.52872       -1.20581        1.14631
H          0.16649       -1.99541       -1.27352
H         -0.31447       -2.14187        0.45983
