20
/mnt/e/work/rmlp/database/CAMD/log/success_log/ts_340_1_NO2-A-3-a_opt.log
C          3.06555       -1.17539       -0.38300
N          2.21103       -0.23097        0.29478
O          0.84844       -0.68509        0.18768
C          0.04004       -0.11768        1.19890
C         -0.94422        0.87276        0.60027
C         -0.39267        2.07927       -0.04064
O          0.75592        2.24317       -0.38084
N         -2.41091       -0.53745       -0.10860
O         -2.24603       -1.52778        0.46919
O         -1.44682       -0.47641       -1.55478
H          4.08409       -0.80259       -0.30114
H          2.81599       -1.31603       -1.44171
H          2.99171       -2.13551        0.12756
H          2.23053        0.67995       -0.17341
H         -0.52259       -0.94563        1.66277
H          0.67755        0.33426        1.96523
H         -1.76630        1.13158        1.25958
H         -1.14851        2.86876       -0.19904
H         -1.07756        0.36617       -0.69589
H         -0.78998       -1.18687       -1.53037
