19
/mnt/e/work/rmlp/database/CAMD/log/success_log/ts_344_1_R-A-6_opt.log
N         -0.52411       -0.15021        1.11783
C         -1.56990        0.55455        0.39406
C         -2.77366       -0.22699        0.20729
N         -3.73628       -0.81768        0.04133
C         -0.63319        0.58886       -0.74198
C          0.25890        1.74245       -0.96364
O          0.79678       -1.24374       -0.65263
C          2.15924       -1.17453       -0.55825
C          2.56926       -0.15849        0.39984
N          2.74280        0.67839        1.16421
H          0.02406       -0.90516        0.51695
H          0.12059        0.46716        1.59655
H         -1.82456        1.51838        0.84852
H         -0.76492       -0.13242       -1.53196
H          1.21598        1.43638       -1.37955
H         -0.22249        2.39445       -1.69906
H          0.43306        2.31917       -0.05724
H          2.62114       -0.93453       -1.53599
H          2.58224       -2.14216       -0.22467
