16
/mnt/e/work/rmlp/database/CAMD/log/success_log/ts_398_1_RR-B-1-b_opt.log
C          0.62885        0.31590       -0.39130
C          0.09141        1.68111       -0.78411
C          1.86937        0.35794        0.29676
O          2.57515        1.07239        0.90611
O          2.48969       -1.00358       -0.26682
C         -0.29076       -0.79700       -0.16707
O         -0.00340       -1.84796        0.37513
C         -1.71209       -0.59376       -0.68773
Cl        -2.64762        0.33332        0.52043
H          1.60095       -0.70090       -1.04595
H         -0.75876        1.97983       -0.17589
H          0.87499        2.42441       -0.65853
H         -0.21371        1.68401       -1.82978
H          3.44119       -0.99496       -0.44520
H         -2.19585       -1.56582       -0.78067
H         -1.75141       -0.04496       -1.62584
