16
/mnt/e/work/rmlp/database/CAMD/log/success_log/ts_322_2_A-E-16_opt.log
N         -2.49067        2.21425       -1.43925
C         -2.47421        1.73144       -0.40480
C         -2.43385        1.13146        0.90758
C         -1.07881        0.50584        1.21305
C          0.14068        1.12862        0.71082
C          1.40390       -0.84282        0.55434
Br         2.87224        0.11229       -0.25667
S         -0.66339       -0.79702       -0.01853
Cl        -2.52645       -1.84797       -0.37489
H         -3.20922        0.35943        0.95618
H         -2.65030        1.90199        1.65400
H         -1.03422        0.12559        2.23203
H          0.07808        1.71338       -0.19276
H          0.95459        1.37522        1.36961
H          1.48287       -0.80488        1.63262
H          1.50220       -1.86017        0.19036
