13
/mnt/e/work/rmlp/database/CAMD/log/success_log/ts_305_1_E-1_opt.log
N          1.57048       -1.38079        0.13129
C          0.78263       -0.48456        0.24911
C         -0.60320       -0.08061        0.49540
C         -1.61912       -0.97322       -0.21607
O         -2.78652       -0.73229       -0.26003
C         -0.84120        1.38043        0.12519
O          0.03192        2.13528       -0.17839
O          2.89148       -0.09587       -0.23786
H         -0.81791       -0.16340        1.57079
H         -1.16654       -1.85848       -0.69225
H         -1.90504        1.66442        0.15713
H          1.65209        0.49358       -0.01286
H          3.83427        0.02027       -0.45343
