22
/mnt/e/work/rmlp/database/CAMD/log/success_log/ts_319_2_S-A-9_opt.log
C          3.17783        1.37746       -0.76754
O          2.05302        0.51304       -0.85703
C          0.93120        1.00628       -0.12974
O          0.96136        2.11894        0.32626
C         -0.33584        0.29224       -0.55507
C         -1.43465        0.57068        0.45051
Br        -3.11959       -0.17402       -0.16465
C          1.83212       -2.48979       -0.56515
C          2.77065       -1.36946       -0.38788
Cl         1.47435       -0.40557        1.58137
H          2.88424        2.38076       -1.07993
H          3.54113        1.42455        0.26155
H          3.94585        0.99032       -1.43325
H         -0.60604        0.70411       -1.53383
H         -0.16786       -0.77644       -0.65915
H         -1.58503        1.64067        0.58567
H         -1.21576        0.10393        1.40979
H          2.45322       -3.35223       -0.83640
H          1.14978       -2.32704       -1.39632
H          1.28135       -2.72865        0.33838
H          3.38342       -1.35025        0.49581
H          3.29434       -1.10461       -1.29754
