14
/mnt/e/work/rmlp/database/CAMD/log/success_log/ts_377_1_S-A-4_opt.log
O          0.01800        1.20520        1.34861
C         -0.06704        1.10523        0.17522
F          0.14328        2.12645       -0.68519
N         -1.08166        0.20245       -0.51426
C         -1.98835       -0.51361        0.36061
F         -2.20831       -1.75298       -0.15737
O          1.15323       -0.02754       -0.53596
C          2.12151       -0.60039        0.15697
O          2.48732       -1.72395        0.00026
H         -1.52604        0.65121       -1.31473
H         -1.51325       -0.63183        1.34295
H         -2.96503       -0.02237        0.45306
H         -0.05382       -0.44732       -0.86221
H          2.54992        0.09496        0.90379
