18
/mnt/e/work/rmlp/database/CAMD/log/success_log/ts_354_1_NO2-B-3-e_opt.log
C          1.41966        1.33676        0.48779
N          2.23808        0.58776       -0.39631
C          1.85847       -0.65842       -0.83139
C          0.66210       -1.37069       -0.45630
O         -0.13443       -1.10484        0.42689
O         -4.24725       -0.39227        0.33944
C         -3.05137       -0.31807        0.33998
C         -2.28010        0.73837       -0.27677
N         -1.62942        1.55576       -0.74582
O          3.55950       -0.10743        0.59165
H          1.02889        0.77829        1.34275
H          1.97531        2.21440        0.81831
H          0.56204        1.66974       -0.10543
H          2.28129       -0.91129       -1.79819
H          0.50535       -2.27581       -1.08067
H         -2.38533       -1.06071        0.81630
H          2.89939       -1.06127        0.05169
H          3.79724        0.11070        1.50644
