17
/mnt/e/work/rmlp/database/CAMD/log/success_log/ts_318_1_NO2-B-3-d_opt.log
C         -1.93862       -1.21561       -0.86483
C         -1.09483       -0.36802        0.07622
O         -0.65878       -1.03180        1.23578
N         -0.24077        0.49057       -0.51782
C          1.02163        0.75763        0.07241
C          1.99314       -0.38683       -0.13110
O          3.17910       -0.25191       -0.20101
O         -1.38563        1.91352        0.12354
H         -1.36946       -2.08964       -1.17868
H         -2.85359       -1.54910       -0.37900
H         -2.18874       -0.62615       -1.73992
H         -1.37816       -1.56936        1.58150
H          1.43186        1.67113       -0.36243
H          0.95760        0.87075        1.16654
H          1.51224       -1.37759       -0.18285
H         -1.85627        0.59912        0.41909
H         -1.53541        2.87537        0.11786
