19
/mnt/e/work/rmlp/database/CAMD/log/success_log/ts_372_2_R-B-2_opt.log
C         -3.46614       -1.09767       -0.59371
C         -2.07378       -1.14956       -0.01189
O         -1.46489       -2.19141        0.08386
C         -1.50306        0.13641        0.47179
C         -1.97784        1.38594       -0.02647
C         -1.36487        2.55402        0.24621
C          0.75833        1.92998       -0.68693
C          1.09385        0.85291       -0.21592
Br         2.31966       -0.50360       -0.09065
C         -0.36939        0.06967        1.23078
H         -3.86570       -2.10701       -0.65126
H         -4.11832       -0.47380        0.01199
H         -3.42266       -0.68752       -1.60140
H         -2.74405        1.36845       -0.78717
H         -0.71577        2.69087        1.09164
H         -1.67737        3.45942       -0.24967
H          0.52930        2.84720       -1.14185
H         -0.03658        0.88030        1.85436
H         -0.00017       -0.91096        1.49185
