33
/mnt/e/work/rmlp/database/CAMD/log/success_log/ts_305_1_S-A-15_opt.log
C          2.94086       -1.98264        1.02920
C          2.02500       -1.60075       -0.12568
N          1.80269       -0.15568       -0.13640
N          2.94568        0.48357       -0.68930
C          0.50554        0.38986       -0.80275
O          0.65082        0.96037       -1.86077
C         -0.73082       -0.33532       -0.40045
C         -1.77218       -0.34697       -1.32423
C         -2.96697       -0.97696       -1.03182
C         -3.13802       -1.60087        0.19270
C         -2.11108       -1.58668        1.12170
C         -0.91344       -0.95559        0.83383
O          0.66168        1.60539        0.63568
C         -0.38738        2.10775        1.39860
C         -1.25383        3.06132        0.58307
H          3.15365       -3.04735        1.00014
H          3.87475       -1.43316        0.95209
H          2.47418       -1.74732        1.98287
H          2.48987       -1.88214       -1.07687
H          1.06602       -2.11423       -0.04735
H          2.85190        0.46842       -1.71008
H          2.90308        1.46611       -0.42476
H         -1.61921        0.14925       -2.27084
H         -3.76622       -0.97915       -1.75791
H         -4.07044       -2.09308        0.42630
H         -2.24427       -2.06545        2.08105
H         -0.13143       -0.94528        1.57953
H          1.43929        0.55873        0.80895
H          0.05523        2.64069        2.25388
H         -1.01635        1.29433        1.79786
H         -1.69626        2.52629       -0.25378
H         -2.04439        3.47300        1.20544
H         -0.64406        3.87023        0.18913
