18
/mnt/e/work/rmlp/database/CAMD/log/success_log/ts_384_1_NO2-B-8-d_opt.log
C          1.95412       -1.04776        1.24766
S          1.60992        0.13273       -0.07462
O          1.09885        1.34556        0.48172
O          2.72608        0.20331       -0.96941
C          0.21312       -0.68386       -1.03041
N         -0.73341       -0.92229       -0.04894
C         -1.59810        0.04498        0.35007
F         -1.87073       -0.00618        1.68981
C         -1.62481        1.36942       -0.19829
N         -1.71073        2.39753       -0.69281
O         -2.20497       -1.78291       -0.85886
H          2.39217       -1.93138        0.80414
H          1.01327       -1.26486        1.73656
H          2.64730       -0.57584        1.93316
H         -0.04707        0.02044       -1.82788
H          0.62690       -1.60934       -1.42132
H         -2.60810       -0.63192       -0.22119
H         -2.46319       -2.62622       -1.26730
