24
/mnt/e/work/rmlp/database/CAMD/log/success_log/ts_342_2_S-D-9_opt.log
C         -1.67167        1.96774       -0.36507
C         -2.48272        0.79519        0.12542
O         -3.69125        0.75550        0.04783
N         -1.78324       -0.24131        0.69377
C         -2.49536       -1.44862        1.05235
C         -0.37215       -0.32007        0.76734
S          0.31465       -1.24717       -0.75384
O         -0.01775       -0.41763       -1.90434
C          2.13892       -0.94132       -0.32962
N          3.41479        0.36154        0.28275
O          3.58278        0.35255        1.43212
O          2.12555        1.56842       -0.15843
H         -1.09595        2.41922        0.44022
H         -0.99922        1.64816       -1.15729
H         -2.36005        2.70761       -0.76356
H         -2.28987       -1.71339        2.09119
H         -2.20061       -2.27659        0.40173
H         -3.55942       -1.25725        0.92959
H         -0.06992       -0.91481        1.63096
H          0.09044        0.66280        0.79925
H          2.70470       -1.30540       -1.18330
H          2.26993       -1.59689        0.52554
H          1.85800        0.32366       -0.41574
H          2.49989        2.02769       -0.91289
