14
/mnt/e/work/rmlp/database/CAMD/log/success_log/ts_361_1_E-2-b_opt.log
C         -1.53064        0.93513        0.65623
C         -0.79272        0.14826       -0.44345
N         -1.07671       -1.27734       -0.44984
C          0.65225        0.38603       -0.29283
N          1.58523        1.10982       -0.46928
O          1.47116       -0.85383        0.64945
H         -1.24043        0.56296        1.63735
H         -2.60653        0.81888        0.53636
H         -1.27993        1.99063        0.59634
H         -1.07410        0.54806       -1.42775
H         -2.06511       -1.43516       -0.61254
H         -0.84131       -1.67258        0.45596
H          1.58594       -1.73065        0.26553
H          2.21915        0.10458        0.26731
