18
/mnt/e/work/rmlp/database/CAMD/log/success_log/ts_391_2_R-A-5_opt.log
O         -1.05740        1.60515        0.22760
C         -1.48232        0.30482        0.28343
C         -2.78676        0.01402       -0.45365
C         -0.23356       -0.11911       -0.38696
O          1.24190        0.95617        0.54197
C          2.18732        1.52540       -0.32466
N          0.50462       -1.29161        0.01144
O          1.16575       -1.80080       -0.87075
O          0.33426       -1.74010        1.11762
H          0.43351        1.57165        0.68245
H         -1.51885       -0.10319        1.30737
H         -2.73504        0.40188       -1.46754
H         -3.60085        0.51066        0.06632
H         -2.97268       -1.05593       -0.47723
H         -0.06210        0.19134       -1.40815
H          2.81852        2.21479        0.24287
H          2.81132        0.72437       -0.72449
H          1.70971        2.07156       -1.14210
