21
/mnt/e/work/rmlp/database/CAMD/log/success_log/ts_384_1_NO2-A-3-a_opt.log
C          3.35461       -0.36249        0.12809
N          2.13647       -1.01764       -0.31792
N          0.99745       -0.17699       -0.38372
C          0.34585       -0.03787        0.91160
C         -0.97476        0.68273        0.73852
C         -0.91869        2.05479        0.20560
O          0.01927        2.54446       -0.38171
N         -2.22297       -0.98489        0.20092
O         -1.67748       -1.94381        0.55217
O         -1.73402       -0.53375       -1.41415
H          3.60116        0.53393       -0.46047
H          3.24120       -0.07208        1.17260
H          4.17406       -1.07344        0.05442
H          2.27597       -1.40186       -1.24992
H          1.22799        0.75918       -0.73664
H          0.16748       -1.05815        1.28452
H          0.96487        0.47738        1.66296
H         -1.60745        0.64811        1.62002
H         -1.83576        2.63992        0.39436
H         -1.34830        0.28378       -0.54078
H         -0.94204       -1.03825       -1.64930
