27
/mnt/e/work/rmlp/database/CAMD/log/success_log/ts_344_1_RR-A-13-c_opt.log
C          0.98741        2.37506       -0.78340
C          1.52470        1.06151       -0.59793
C          2.84172        0.87080        0.02482
O         -0.18350        1.40065        1.28442
C         -1.06551        0.70944        0.66866
C         -2.42214        0.67151        1.08242
C         -3.35918       -0.07766        0.42024
C         -3.00744       -0.82482       -0.70087
C         -1.70356       -0.79543       -1.15205
C         -0.73372       -0.05788       -0.48826
C          0.69770       -0.10862       -0.99028
O          1.32424       -1.38582       -0.79376
C          1.16449       -2.00188        0.41611
F          2.17963       -1.67522        1.29254
H          0.39888        2.45078        0.21943
H          1.71829        3.17402       -0.81178
H          0.22654        2.46151       -1.55382
H          2.70682        0.67350        1.09124
H          3.46592        1.75422       -0.07958
H          3.34011       -0.00595       -0.38672
H         -2.69039        1.27331        1.93804
H         -4.38220       -0.08815        0.76905
H         -3.74439       -1.42670       -1.20986
H         -1.41947       -1.37517       -2.02019
H          0.62196       -0.04596       -2.08889
H          0.22493       -1.73536        0.92024
H          1.24371       -3.08393        0.25783
