22
/mnt/e/work/rmlp/database/CAMD/log/success_log/ts_334_1_A-E-24_opt.log
C         -3.17529        2.12218       -0.29890
C         -1.67506        1.93388       -0.22035
O         -0.96134        2.69749        0.38472
C         -1.15377        0.75762       -0.95945
C         -1.17254       -0.41110        1.10576
C         -1.50323       -1.82918        0.79767
C         -2.73164       -1.98830       -0.06459
O         -2.84985       -2.77406       -0.95653
C          0.16161       -0.02594        1.52256
S          0.73279        0.02189       -0.22373
Br         3.03865       -0.14607       -0.19253
H         -3.41286        2.51030       -1.28853
H         -3.71035        1.18509       -0.17157
H         -3.49865        2.84711        0.44392
H         -1.88573        0.01170       -1.24856
H         -0.60762        1.08312       -1.84242
H         -2.00200        0.22742        1.36967
H         -0.66199       -2.36346        0.35149
H         -1.75850       -2.33602        1.74133
H         -3.56288       -1.31500        0.23000
H          0.76286       -0.78228        2.02263
H          0.24933        0.95171        1.98848
