24
/mnt/e/work/rmlp/database/CAMD/log/success_log/ts_308_1_S-A-17_opt.log
C         -1.05704        0.91461        1.54885
C         -1.47667        1.13401        0.13995
O         -1.84153        2.13951       -0.37665
N         -1.88392       -0.17530       -0.63472
C         -2.08420       -1.49652        0.04805
O         -1.04076       -2.33447       -0.20908
O          0.37201        0.74613       -0.81415
C          1.29338        0.08781       -0.22950
O          1.07817       -0.92045        0.45896
C          2.70814        0.61403       -0.41495
C          3.75792       -0.26140        0.25056
H         -0.36712        0.08050        1.65495
H         -1.94457        0.73791        2.15657
H         -0.57613        1.82506        1.89838
H         -2.62760        0.07798       -1.28754
H         -2.22964       -1.30544        1.12086
H         -2.99063       -1.96137       -0.35533
H         -0.18640       -1.92309        0.12520
H         -0.94307       -0.18374       -1.15284
H          2.88657        0.69492       -1.48995
H          2.72773        1.62923       -0.00973
H          3.56814       -0.33165        1.31893
H          3.72649       -1.26694       -0.16211
H          4.75147        0.15277        0.09513
