23
/mnt/e/work/rmlp/database/CAMD/log/success_log/ts_332_2_S-A-6_opt.log
C          3.61326       -0.22670        0.17575
C          2.18268       -0.71311        0.00547
N          1.40691        0.30949       -0.69261
N          0.03662       -0.02958       -0.81139
C         -0.84509        0.38867        0.44277
O         -0.25849        1.10224        1.23375
C         -1.84171       -0.68026        0.84680
C         -2.57085       -1.38839       -0.28702
O         -1.74521        1.36071       -0.71413
H          4.02912        0.04728       -0.78998
H          4.22474       -1.00927        0.61657
H          3.63965        0.64384        0.82637
H          1.75146       -0.95546        0.98841
H          2.16797       -1.61744       -0.61435
H          1.41164        1.15493       -0.10933
H         -0.06669       -1.00153       -1.09266
H         -1.29106       -1.39945        1.46000
H         -2.56535       -0.18325        1.49436
H         -1.91301       -2.04786       -0.85005
H         -3.37351       -1.99602        0.12365
H         -3.00165       -0.65753       -0.96432
H         -0.75704        0.80066       -1.33172
H         -1.56110        2.27687       -0.48843
