23
/mnt/e/work/rmlp/database/CAMD/log/success_log/ts_345_1_R-A-6_opt.log
N         -0.64349       -0.50213        1.05705
C         -1.91228        0.00392        0.56549
C         -2.66213       -0.99198       -0.17283
N         -3.27243       -1.76300       -0.75355
C         -1.20774        0.99944       -0.26722
C         -0.88111        2.33803        0.26926
O          0.77420        0.14299       -0.81030
C          2.01491        0.66595       -0.52211
N          3.05851       -0.33369       -0.44589
C          2.96137       -1.22240        0.69727
H          0.21425       -0.41600        0.15282
H         -0.34592       -0.01244        1.89221
H         -2.55812        0.41776        1.35294
H         -1.16553        0.84963       -1.33388
H         -1.63681        3.03713       -0.10070
H         -0.89546        2.36501        1.35751
H          0.08493        2.68709       -0.08972
H          2.30116        1.37214       -1.31772
H          2.01644        1.20679        0.44367
H          3.04731       -0.87936       -1.30290
H          3.81235       -1.90139        0.67537
H          2.03794       -1.81502        0.72427
H          3.01749       -0.62143        1.60600
