19
/mnt/e/work/rmlp/database/CAMD/log/success_log/ts_386_1_RR-B-7-a_opt.log
O          0.52906        1.60100        0.33157
C          0.54136        0.30340        0.53020
C         -0.19796       -0.58030       -0.49192
N         -1.65044       -0.46119       -0.42463
C         -2.23403       -0.95074        0.80981
N         -2.13150        0.84943       -0.67761
N          2.12163        0.14902        0.30894
O          2.76933       -0.88527       -0.41252
H          1.96569        1.26880       -0.02845
H          0.32433       -0.03462        1.56031
H          0.09191       -0.26803       -1.50298
H          0.06077       -1.63146       -0.33960
H         -3.31313       -0.96075        0.67217
H         -2.00367       -0.32255        1.67902
H         -1.88447       -1.96572        0.99043
H         -1.57384        1.54832       -0.17763
H         -2.03637        1.03204       -1.67310
H          2.60535        0.14877        1.21262
H          2.34227       -0.93561       -1.28062
