20
/mnt/e/work/rmlp/database/CAMD/log/success_log/ts_320_2_S-B-8_opt.log
C          1.93000        1.53814        0.89562
C          1.04474        0.35660        0.52419
C          1.82739       -0.88966        0.15161
O          1.31672       -1.96220       -0.05146
O          3.13500       -0.68363        0.04769
C          0.15754        0.68025       -0.68615
O          0.40310        1.57210       -1.45868
C         -1.02827       -0.21308       -0.81315
N         -2.48054       -0.69179        0.52356
O         -3.41007       -1.10950       -0.02557
O         -2.60683        1.08578        0.73632
H          2.52163        1.84742        0.03868
H          2.59951        1.27524        1.70938
H          1.30642        2.37332        1.20375
H          0.37998        0.08114        1.34883
H          3.59034       -1.49972       -0.21432
H         -0.70652       -1.22784       -0.58480
H         -1.50375       -0.15764       -1.79202
H         -1.71483        0.69046       -0.08940
H         -3.40070        1.40625        0.29600
