19
/mnt/e/work/rmlp/database/CAMD/log/success_log/ts_363_1_RR-B-6-a_opt.log
N         -1.83069        1.15367        0.54944
C         -1.51743        0.06932        0.17287
O         -3.13087       -0.30176       -0.46268
C         -0.54951       -1.01763        0.04140
N          0.75744       -0.71284        0.59261
N          1.60668       -0.05201       -0.32561
C          1.50148        1.39480       -0.28406
C          2.96937       -0.49981       -0.11101
H         -3.07100        0.85136        0.04296
H         -3.71946       -0.90831       -0.94979
H         -0.94859       -1.89576        0.56313
H         -0.41724       -1.26922       -1.01418
H          0.67313       -0.20970        1.47950
H          1.83670        1.81026        0.67917
H          0.46633        1.68668       -0.44946
H          2.11685        1.81125       -1.07915
H          2.97876       -1.58697       -0.12640
H          3.38357       -0.15372        0.84672
H          3.59049       -0.12350       -0.92130
