24
/mnt/e/work/rmlp/database/CAMD/log/success_log/ts_348_1_S-B-1_opt.log
C          1.37410        0.01541       -0.11360
Cl         2.33702        2.07549       -0.71844
C          2.41701       -0.59328        0.79025
C          2.82439       -1.87153        0.25043
N          3.14414       -2.87625       -0.18605
C         -0.01851       -0.64707        0.01329
O         -0.21970       -1.45216        0.87700
C         -0.97578       -0.25135       -1.07076
C         -2.46335       -0.41668       -0.71945
O         -3.21946       -0.92996       -1.49564
C         -2.85741        0.13409        0.62233
C         -4.36522        0.30619        0.75360
N          0.74234        1.34657        0.92127
N         -0.19434        1.95844        0.88327
H          1.63596       -0.03739       -1.16907
H          2.01349       -0.74476        1.79577
H          3.29550        0.05220        0.84452
H         -0.80215        0.78763       -1.36515
H         -0.76918       -0.88199       -1.94195
H         -2.33505        1.07915        0.79553
H         -2.49661       -0.57813        1.37071
H         -4.86617       -0.63635        0.55005
H         -4.62277        0.63473        1.75655
H         -4.72548        1.04256        0.03972
