22
/mnt/e/work/rmlp/database/CAMD/log/success_log/ts_359_4_R-B-7_opt.log
C          3.01650       -0.70309       -0.46103
C          1.70807        0.04759       -0.47648
C          1.67926        1.37648        0.21268
O          0.76462        2.15427        0.13303
C          0.91752       -0.64639        1.69508
C         -0.37813       -0.32190        1.47140
C         -1.08879       -0.77826        0.33073
C         -2.27643        0.05276       -0.09624
O         -3.30676        0.10064        0.51067
O         -2.05998        0.72705       -1.22447
C         -0.57556       -1.67162       -0.56451
O          0.77537       -0.26757       -1.23189
H          3.53097       -0.61329        0.49092
H          3.65376       -0.27330       -1.23518
H          2.86061       -1.75030       -0.70882
H          2.60997        1.62285        0.75930
H          1.46743       -0.17177        2.49073
H          1.35637       -1.53926        1.28862
H         -0.83937        0.47654        2.03655
H         -1.13022        0.65625       -1.51013
H         -1.08278       -1.86289       -1.49616
H          0.17275       -2.39343       -0.28424
