22
/mnt/e/work/rmlp/database/CAMD/log/success_log/ts_42_1_S-A-17_opt.log
C          0.17495        1.33034        1.39880
C          0.70715        1.11531        0.01492
O          1.52127        1.76091       -0.58467
N         -0.48953        0.52620       -0.94547
O         -1.82094        0.66510       -0.51480
C         -2.49723       -0.40250        0.01367
C         -1.82065       -1.74234       -0.00095
O         -3.59266       -0.18264        0.43389
O          1.21135       -0.61681        0.05057
C          2.47791       -0.83959       -0.46479
O          3.37587       -1.22517        0.52177
H          0.98646        1.68714        2.02672
H         -0.60178        2.09182        1.35784
H         -0.23263        0.41623        1.81765
H         -0.41184        0.96520       -1.86562
H         -1.57898       -2.03243       -1.02241
H         -0.90397       -1.72920        0.58636
H         -2.50583       -2.47025        0.42360
H          0.16929       -0.49311       -0.75146
H          2.45039       -1.66303       -1.18780
H          2.81009        0.09000       -0.97226
H          3.43362       -0.52418        1.18176
