21
/mnt/e/work/rmlp/database/CAMD/log/success_log/ts_402_2_A-E-14_opt.log
C         -3.48111       -1.04772       -0.28302
C         -2.39385       -0.12554       -0.82022
O         -2.12277        0.93059        0.11458
C         -1.17079        0.83721        0.98899
Cl         0.74085        1.77816       -0.17196
C         -0.40407       -0.29022        1.32076
S          1.29245       -0.59124        0.02800
C          2.83888        0.03043       -0.77870
O          0.54434       -1.20310       -1.04158
O          1.87057       -1.43810        1.04602
H         -3.72031       -1.79343       -1.03498
H         -4.37827       -0.47838       -0.05196
H         -3.15077       -1.55609        0.61930
H         -1.47874       -0.67188       -1.05830
H         -2.74767        0.38977       -1.71647
H         -1.11491        1.73385        1.59936
H         -0.78867       -1.26671        1.07664
H          0.11793       -0.23839        2.26148
H          3.42201       -0.85804       -0.98777
H          3.34156        0.67527       -0.07134
H          2.55275        0.55522       -1.67965
