26
/mnt/e/work/rmlp/database/CAMD/log/success_log/ts_405_1_R-B-6_opt.log
C          3.63153        0.07594       -0.26603
C          2.18033        0.53692       -0.13523
N          1.25320       -0.53148       -0.36791
N          0.60718       -1.10514        0.64932
C         -0.95895        0.14596        1.31116
C         -1.48087        0.44965        0.07912
N         -1.39404        1.70412       -0.47858
C         -0.81262        2.83817        0.18527
C         -1.95406       -0.59228       -0.78628
C         -2.09305       -1.87692       -0.41758
O          0.03173       -2.16755        0.34137
H          4.30717        0.90106       -0.05725
H          3.82658       -0.28744       -1.27259
H          3.82968       -0.72827        0.43739
H          1.98762        1.35330       -0.84236
H          1.99327        0.89085        0.88028
H          1.18097       -0.94561       -1.29435
H         -0.47311        0.90108        1.90346
H         -1.30572       -0.71117        1.85418
H         -1.42095        1.74656       -1.48505
H          0.27992        2.77493        0.27011
H         -1.23216        2.92538        1.18809
H         -1.06542        3.73856       -0.37288
H         -2.03632       -0.33310       -1.83669
H         -2.17615       -2.18382        0.60699
H         -2.28750       -2.63916       -1.15265
