15
/mnt/e/work/rmlp/database/CAMD/log/success_log/ts_48_2_A-E-23_opt.log
N         -2.87687       -2.30442        0.67793
O         -2.43698       -1.68894       -0.53854
C         -1.15164       -1.34523       -0.57395
O         -0.69534       -0.78012       -1.54290
C         -0.27149       -1.57447        0.59269
C          0.99890       -2.06620        0.31835
Br         2.53057       -0.13341       -0.24671
S          0.30008        0.45403        0.39522
O          0.57242        0.83241        1.73859
Br        -1.29978        1.94274       -0.14645
H         -3.20438       -3.23332        0.41506
H         -3.68905       -1.76027        0.96816
H         -0.69080       -1.62868        1.58810
H          1.63365       -2.41615        1.11613
H          1.23423       -2.41315       -0.67545
