12
/mnt/e/work/rmlp/database/CAMD/log/success_log/ts_49_1_A-I-4_opt.log
N          1.64256        1.48016        0.44776
C          1.67253        0.25254        0.04832
S          2.45230       -1.14580        0.28161
N          0.52212        0.38654       -1.01822
O         -0.66504       -0.32212       -0.79116
C         -1.56866        0.34221       -0.02912
O         -1.42946        1.46592        0.36162
C         -2.72112       -0.50603        0.20934
N         -3.65672       -1.12898        0.41554
H          2.27883        1.78968        1.16799
H          0.57928        1.51529       -0.54591
H          0.80880        0.18103       -1.97834
