24
/mnt/e/work/rmlp/database/CAMD/log/success_log/ts_44_1_S-B-9_opt.log
C          3.06718        0.29776        1.22891
N          2.72449       -0.70208        0.24476
C          3.74614       -1.67184       -0.08275
C          1.49785       -0.84669       -0.28699
O          1.20247       -1.68190       -1.11362
C          0.43881        0.12754        0.26130
N          0.31877        2.21868        0.57787
O         -0.75866        2.62503        0.49386
C         -0.90228       -0.09824       -0.33877
O         -1.22395        0.18389       -1.45448
O         -3.68920        0.07156       -0.30627
N         -3.19898       -0.78854        0.31106
O         -3.61731       -1.76333        0.80018
O         -1.74995       -0.62034        0.59420
O          1.15485        2.26017       -0.97276
H          2.72985        0.00696        2.22836
H          2.63944        1.26551        0.97468
H          4.15045        0.39698        1.25179
H          3.33462       -2.37239       -0.80630
H          4.61255       -1.17151       -0.51829
H          4.05696       -2.21649        0.81115
H          0.42228        0.04119        1.34536
H          0.99077        1.08409       -0.55717
H          0.52115        2.41739       -1.68452
