19
/mnt/e/work/rmlp/database/CAMD/log/success_log/ts_412_1_RR-B-8-b_opt.log
O          2.35201        1.68084       -0.57248
N          0.98969        1.63707       -0.19099
C          0.52098        0.41353        0.05405
Br         1.67752       -1.07477       -0.22149
C         -0.92076        0.16093       -0.03395
C         -1.46317       -1.08354        0.27526
C         -2.82853       -1.28528        0.19864
C         -3.66633       -0.25200       -0.18653
C         -3.13260        0.98976       -0.49322
C         -1.76971        1.20067       -0.41627
O          0.65724        0.91036        1.88220
H          2.48145        2.56479       -0.93810
H         -0.81694       -1.89264        0.58049
H         -3.23868       -2.25408        0.44081
H         -4.73209       -0.41344       -0.24802
H         -3.78202        1.79788       -0.79491
H         -1.34583        2.16262       -0.65696
H          0.89990        1.89337        1.05290
H          0.37981        0.70503        2.78725
