28
/mnt/e/work/rmlp/database/CAMD/log/success_log/ts_448_1_NO2-A-11-d_opt.log
C          0.52601       -1.47300        1.60892
C          0.91429       -0.18412        0.90290
N          1.63736       -0.41302       -0.34458
N          2.91780       -0.83819       -0.31529
O          3.33723       -1.26303        0.73377
O          3.51184       -0.79362       -1.36245
N         -0.23762        0.64340        0.56318
N         -0.10347        1.89015        0.28086
O          1.02035        2.45349        0.72361
C         -1.47819        0.07193        0.17918
C         -1.53750       -0.99049       -0.71370
C         -2.77068       -1.50460       -1.07394
C         -3.93513       -0.95905       -0.55938
C         -3.87055        0.11642        0.31125
C         -2.64362        0.63621        0.68156
O          0.76268        2.01747       -1.46349
H         -0.00219       -2.15258        0.94794
H         -0.10699       -1.24182        2.46139
H          1.43140       -1.95840        1.96349
H          1.54338        0.41977        1.57764
H          1.41563        0.23143       -1.11285
H         -0.63413       -1.39427       -1.14299
H         -2.82001       -2.32931       -1.76838
H         -4.89285       -1.36636       -0.84474
H         -4.77661        0.55150        0.70388
H         -2.57443        1.47610        1.35487
H          1.31014        2.61234       -0.40287
H          0.32355        2.58080       -2.09894
