14
/mnt/e/work/rmlp/database/CAMD/log/success_log/ts_436_1_S-G-2_opt.log
N         -1.98433        1.19488        2.04953
C         -1.76644        0.48163        1.18774
C         -1.57530       -0.41094        0.04603
C         -2.78606       -0.36954       -0.77191
N         -3.72747       -0.31904       -1.41216
O         -0.43480       -0.09765       -0.74230
S          1.20335       -0.67658        0.20415
O          1.00160       -0.07248        1.46775
O          0.82738       -2.03145        0.02775
O          2.66424       -0.62881       -0.32999
Cl         1.38484        1.72898       -0.76783
H         -1.42135       -1.44055        0.41129
H          3.04203        0.26423       -0.37388
H         -0.13453        0.91430       -0.86919
