25
/mnt/e/work/rmlp/database/CAMD/log/success_log/ts_479_2_R-A-7_opt.log
O         -0.31353       -1.90465       -0.12677
C         -1.19278       -0.93255       -0.51238
C         -0.10859        0.05334       -0.41158
N          1.53817       -0.51147        0.74599
N          2.86370       -0.50159        0.24786
C          3.39795        0.83957        0.06612
C          4.81616        0.74658       -0.47689
C         -2.37002       -0.70386        0.47813
C         -3.02196        0.60321        0.16603
O         -2.61230        1.68729        0.50043
O         -4.11656        0.46290       -0.59471
H          1.14169       -1.46431        0.76686
H         -1.60210       -1.09329       -1.52560
H         -0.18964        0.86007        0.29883
H          0.50800        0.19969       -1.28067
H          1.52737       -0.06974        1.66505
H          2.86153       -1.01087       -0.63376
H          3.40644        1.32010        1.04966
H          2.77700        1.45078       -0.60524
H          5.42553        0.13027        0.17810
H          5.25688        1.73734       -0.54031
H          4.81736        0.30262       -1.46968
H         -1.95755       -0.68210        1.48672
H         -3.08023       -1.52205        0.37916
H         -4.49079        1.33094       -0.81424
