14
/mnt/e/work/rmlp/database/CAMD/log/success_log/ts_4_1_A-E-24_opt.log
N          2.34572       -1.75247       -0.54470
C          2.04046       -1.10021        0.61132
C          2.41192        1.23966        0.16497
C          1.25665        1.82418       -0.41221
S          0.23291        0.28049        0.18271
Br        -2.03059       -0.14367       -0.02317
H          1.56499       -2.13266       -1.05995
H          3.05516       -1.34469       -1.13527
H          1.31493       -1.62136        1.22161
H          2.88866       -0.77036        1.18758
H          2.67896        1.50019        1.17335
H          3.19326        0.86599       -0.47179
H          1.18414        1.86832       -1.49193
H          0.78989        2.66068        0.09238
