20
/mnt/e/work/rmlp/database/CAMD/log/success_log/ts_432_1_S-A-17_opt.log
C         -2.08767       -1.49074       -0.22139
C         -1.07685       -0.61302        0.44964
O         -0.60340       -0.76908        1.54360
N         -0.93300        0.78715       -0.16506
C         -2.09038        1.35562       -0.84833
N         -0.38513        1.74301        0.72976
O          0.44943       -0.97505       -0.87172
C          1.58811       -1.11541       -0.20287
Cl         2.53177        0.45725       -0.11484
H         -3.08986       -1.12748        0.00072
H         -1.98163       -2.49254        0.18554
H         -1.93070       -1.52462       -1.29360
H         -2.92152        1.49278       -0.15419
H         -2.39585        0.71520       -1.67022
H         -1.80133        2.32966       -1.23897
H          0.63225        1.66019        0.72682
H         -0.69973        1.53653        1.67864
H         -0.08494        0.25837       -0.85530
H          2.27966       -1.82166       -0.67439
H          1.41290       -1.37661        0.85692
