17
/mnt/e/work/rmlp/database/CAMD/log/success_log/ts_431_1_R-A-1_opt.log
C         -3.13275        0.51865       -0.24115
N         -2.43425       -0.74755       -0.15655
O         -1.13024       -0.62643       -0.71803
C         -0.11535       -0.72427        0.15486
O         -0.24089       -1.03328        1.31848
C          1.17563       -0.77967       -0.57620
C          2.44987       -0.93114        0.11115
O          2.69208        0.30619       -0.53377
Cl         0.45040        1.67667        0.27385
H         -3.22445        0.78815       -1.29212
H         -4.12299        0.36402        0.18023
H         -2.63119        1.33034        0.29572
H         -2.28390       -1.01566        0.82243
H          1.13064       -0.90302       -1.64821
H          2.38440       -0.88499        1.19834
H          3.15666       -1.67926       -0.24110
H          2.14175        1.05669       -0.10037
