28
/mnt/e/work/rmlp/database/CAMD/log/success_log/ts_48_2_S-C-16_opt.log
N         -3.62092        2.23977       -0.91286
O         -3.12791        0.92568       -1.12479
C         -2.58496        0.32057       -0.01601
O         -2.55338        0.87241        1.06330
N         -2.13701       -0.91237       -0.28280
C         -0.36762       -1.28900        0.32637
C          0.29275       -2.00662       -0.68861
C          1.51169       -1.57231       -1.12715
C          2.13878       -0.44855       -0.55188
C          3.39563        0.01600       -0.98738
C          3.97947        1.10426       -0.40135
C          3.32996        1.77253        0.64915
C          2.11222        1.34571        1.09772
C          1.47992        0.22777        0.51092
C          0.23395       -0.23840        0.96900
O         -1.23737       -2.28669        1.38039
H         -3.23137        2.52880       -0.00773
H         -4.63225        2.15590       -0.79636
H         -2.21068       -1.13143       -1.26915
H         -0.18484       -2.86167       -1.14504
H          2.01235       -2.10298       -1.92373
H          3.88873       -0.50413       -1.79657
H          4.94153        1.45793       -0.74149
H          3.80369        2.63221        1.10035
H          1.60875        1.85928        1.90316
H         -0.27399        0.27083        1.77033
H         -1.11414       -3.20304        1.09011
H         -2.08365       -1.87653        0.94991
