12
/mnt/e/work/rmlp/database/CAMD/log/success_log/ts_424_3_S-B-3-a_opt.log
O          1.92497        0.38618       -0.55630
C          1.55084       -0.32769        0.42771
C          0.30249       -0.91596        0.16421
C         -0.94584       -0.13498       -0.00744
C         -0.88923        1.35680        0.23700
O         -1.98297       -0.69981       -0.27141
H          0.78237       -0.17550       -1.06362
H          2.18323       -0.42910        1.30306
H          0.08512       -1.92236        0.50287
H          0.06990        1.79782       -0.01097
H         -1.08769        1.52871        1.29456
H         -1.67854        1.84049       -0.33304
