23
/mnt/e/work/rmlp/database/CAMD/log/success_log/ts_478_2_R-A-7_opt.log
O         -0.69019        2.31006       -0.44097
C         -1.43972        1.82466        0.60599
C         -0.90729        0.46595        0.40347
C         -1.52366       -0.38506       -0.65263
C         -2.72883       -1.06399       -0.00347
O         -2.68382       -2.08938        0.61356
O         -3.84319       -0.36353       -0.18981
N          1.06491        0.67060       -0.33121
O          2.24862        0.44975        0.40880
C          3.10804       -0.44707       -0.11423
C          4.28619       -0.63450        0.79188
O          2.90893       -0.99394       -1.16634
H          0.76297        1.68179       -0.42801
H         -2.52154        1.92755        0.43055
H         -1.18302        2.26951        1.57892
H         -0.37949       -0.04069        1.20061
H         -0.84745       -1.16453       -1.00185
H         -1.87024        0.23800       -1.47590
H         -4.60258       -0.78521        0.24488
H          1.17912        0.19979       -1.23390
H          5.20166       -0.54917        0.21205
H          4.26760        0.10181        1.58868
H          4.24743       -1.63657        1.21459
