28
/mnt/e/work/rmlp/database/CAMD/log/success_log/ts_440_1_NO2-A-11-d_opt.log
C         -3.44605       -0.37823        0.66853
C         -1.98004       -0.49373        1.06435
N         -1.11634       -0.63565       -0.10364
C         -1.17605       -1.71206       -0.92098
O         -1.88813       -2.66445       -0.74664
N         -0.16832        0.36008       -0.35188
N         -0.48165        1.57734       -0.60793
O         -1.75136        1.77126       -0.95895
C          1.19220        0.06087       -0.12149
C          1.55871       -1.08781        0.56961
C          2.89934       -1.35769        0.77983
C          3.87163       -0.49174        0.30941
C          3.50069        0.65356       -0.37773
C          2.16606        0.93337       -0.59909
O         -0.93246        2.57635        0.97334
H         -4.04706       -0.20324        1.55622
H         -3.77583       -1.29677        0.19179
H         -3.58264        0.44884       -0.02320
H         -1.65408        0.40025        1.59949
H         -1.83156       -1.37089        1.70209
H         -0.46973       -1.62227       -1.76772
H          0.80926       -1.76675        0.94540
H          3.18143       -2.24984        1.31735
H          4.91530       -0.70874        0.47644
H          4.25507        1.33051       -0.74821
H          1.86332        1.81724       -1.13614
H         -1.81282        2.49415       -0.02525
H         -0.42988        3.39052        0.97910
