15
/mnt/e/work/rmlp/database/CAMD/log/success_log/ts_410_1_S-A-19_opt.log
O          0.62493       -0.80800        1.22832
C          0.14291        0.35508        0.97902
C          1.08385       -1.74643        0.29663
Cl         2.61825       -1.24476       -0.51524
N          0.36708        0.90192       -0.35923
C          0.41714        2.37764       -0.35309
O          1.56277        2.84869        0.26257
Br        -2.22763       -0.34111       -0.14052
H          1.29659       -2.66284        0.84772
H          0.33218       -1.91575       -0.48177
H          1.15203        0.49316       -0.87820
H          0.44414        2.73390       -1.38665
H         -0.49787        2.72249        0.14441
H          1.51284        2.67052        1.21065
H         -0.71761        0.50175       -0.72676
