20
/mnt/e/work/rmlp/database/CAMD/log/success_log/ts_473_2_R-A-7_opt.log
O          0.64471        2.12117       -0.42614
C          0.00592        1.73072        0.72694
C         -0.04971        0.33302        0.27493
C         -1.04264       -0.03787       -0.76221
C         -2.34877       -0.51509       -0.13957
O         -3.27278       -0.94399       -0.76927
O         -2.35739       -0.40405        1.18898
N          1.85161       -0.01204       -0.74636
C          2.93870       -0.43730        0.06196
F          2.74316       -1.74650        0.45666
H          1.70153        1.02841       -0.81434
H          0.59803        1.88264        1.64190
H         -0.97416        2.21728        0.84925
H          0.37353       -0.46667        0.86583
H         -0.69665       -0.84047       -1.41579
H         -1.27609        0.82956       -1.38475
H         -3.20595       -0.70820        1.55225
H          1.79314       -0.50016       -1.63071
H          3.91658       -0.42757       -0.44822
H          2.98300        0.16207        0.97826
