18
/mnt/e/work/rmlp/database/CAMD/log/success_log/ts_40_1_NO2-A-3-e_opt.log
O         -3.66899        1.16428        0.35317
C         -2.91304        0.45470       -0.25660
N         -2.08297       -0.44166        0.30806
C         -1.15054       -1.27762       -0.39182
C          0.32184       -0.92855       -0.16312
O          1.17624       -1.80886       -0.32689
C          0.64131        0.42525        0.17383
N          1.91120        0.76645        0.68190
O          2.79594       -0.17988        0.80351
O          2.29714        1.65838       -0.84152
H         -2.82230        0.47014       -1.35959
H         -2.11961       -0.52205        1.31561
H         -1.34464       -1.19330       -1.46691
H         -1.28337       -2.32957       -0.11518
H         -0.13001        1.08152        0.55086
H          2.48533       -1.03595        0.35832
H          1.12933        1.10992       -0.94520
H          3.08755        1.43181       -1.34756
