35
/mnt/e/work/rmlp/database/CAMD/log/success_log/ts_50_1_S-A-13_opt.log
C         -0.66585        3.70320       -0.26229
N         -0.94938        2.30916       -0.52919
C         -1.25581        1.56065        0.67581
C         -1.71646        0.16842        0.27503
O         -2.63410       -0.04823       -0.47743
N         -0.49824       -0.85647        0.25785
C          0.83681       -0.34153        0.17057
C          1.25813        0.43581       -0.90171
C          2.56669        0.88367       -0.94997
C          3.45822        0.55866        0.05830
C          3.03739       -0.21153        1.12952
C          1.73069       -0.66169        1.18710
N         -0.79290       -2.00758       -0.52537
C         -0.06232       -3.15971       -0.04515
C         -0.65334       -1.81759       -1.95300
O         -2.02578       -0.49269        1.90807
H          0.23612        3.76047        0.34861
H         -0.48057        4.21298       -1.20596
H         -1.47657        4.22320        0.26915
H         -1.74445        2.22839       -1.15909
H         -0.36997        1.51815        1.31271
H         -2.07774        2.00780        1.25818
H          0.55635        0.71847       -1.66771
H          2.88977        1.49258       -1.78093
H          4.47828        0.91003        0.01405
H          3.72608       -0.46086        1.92306
H          1.39576       -1.25469        2.02633
H          1.02183       -3.09235       -0.22141
H         -0.44321       -4.03859       -0.56161
H         -0.24030       -3.28376        1.02286
H          0.39187       -1.71746       -2.27925
H         -1.09370       -2.68292       -2.44520
H         -1.22208       -0.93645       -2.23793
H         -0.99104       -1.04603        1.39131
H         -2.79863       -1.05752        1.81945
