21
/mnt/e/work/rmlp/database/CAMD/log/success_log/ts_56_1_S-F-4_opt.log
C         -3.87743        0.69318        0.25639
O         -2.60427        0.82287       -0.36674
C         -1.79123       -0.21666       -0.23584
O         -2.04291       -1.23396        0.34739
O         -0.64933        0.05254       -0.87691
C          0.37545       -0.94203       -0.85357
N          1.39074       -0.65849        0.11268
C          1.04653       -0.69881        1.50784
N          2.09961        0.91832       -0.30261
O          2.15092        1.60428        0.63855
O          3.59824       -0.12264       -0.43272
H         -4.40547       -0.17976       -0.13166
H         -3.76444        0.58714        1.33696
H         -4.41694        1.60540        0.01727
H          0.82235       -0.91551       -1.85094
H         -0.08486       -1.92108       -0.65602
H          1.65051       -1.44186        2.02688
H          1.28243        0.29053        1.93592
H         -0.00953       -0.90444        1.66698
H          2.56427       -0.85588       -0.17004
H          3.78820       -0.08210       -1.37131
