21
/mnt/e/work/rmlp/database/CAMD/log/success_log/ts_52_1_NO2-A-11-e_opt.log
O         -2.88079        1.61281        0.18609
C         -2.50050        0.50037        0.07016
Br        -3.74456       -0.99219        0.06258
O         -1.32160       -0.02837       -0.07049
C         -0.12633        0.70125       -0.11746
C         -0.04181        2.08378       -0.05871
C          1.21266        2.67449       -0.12197
C          2.35554        1.91183       -0.24474
C          2.25977        0.51990       -0.29679
N          3.40897       -0.23163       -0.48763
N          3.42709       -1.44449       -0.03980
O          4.44704       -2.14938       -0.59533
C          1.00793       -0.08647       -0.23999
O          4.68693       -0.41549        1.27585
H         -0.92426        2.69461        0.03302
H          1.28712        3.74956       -0.07417
H          3.32656        2.37968       -0.28707
H          4.45202       -3.00898       -0.14877
H          0.91868       -1.15944       -0.28406
H          4.34579        0.19547       -0.02595
H          5.34520       -0.37892        1.97654
