31
/mnt/e/work/rmlp/database/CAMD/log/success_log/ts_516_1_S-A-15_opt.log
C         -0.49764        3.32199        0.96385
C          0.13165        3.19240       -0.42581
C          0.05629        1.74948       -0.87395
O         -0.69317        1.34099       -1.71995
N          0.92738        0.89302       -0.18229
C          0.38532       -0.41421        0.71535
O          0.85350       -0.41952        1.82199
C         -0.99023       -0.76401        0.31081
C         -1.98684       -0.54462        1.25807
C         -3.30411       -0.82930        0.95223
C         -3.63089       -1.33444       -0.29541
C         -2.63796       -1.56008       -1.23402
C         -1.31797       -1.27310       -0.93879
O          1.43540       -1.36033       -0.39034
C          2.57243       -1.81563        0.27768
C          3.75497       -1.07391       -0.10623
N          4.63934       -0.42993       -0.43882
H          0.02089        2.70279        1.69335
H         -0.45354        4.35551        1.29723
H         -1.53956        3.01160        0.93171
H         -0.41642        3.80560       -1.14115
H          1.17239        3.52279       -0.40111
H          1.58239        1.38630        0.42314
H         -1.71489       -0.15473        2.22780
H         -4.07535       -0.65562        1.68789
H         -4.66102       -1.55345       -0.53494
H         -2.89337       -1.95477       -2.20564
H         -0.54459       -1.45032       -1.66687
H          1.44797       -0.11953       -0.72146
H          2.71540       -2.88402        0.07424
H          2.41676       -1.67040        1.36720
