14
/mnt/e/work/rmlp/database/CAMD/log/success_log/ts_52_1_E-2-b_opt.log
C          1.69125        1.18549        0.37713
C          1.45365       -0.24545        0.00865
O          2.28252       -0.96934       -0.47240
C          0.04617       -0.76978        0.31583
C         -1.00214        0.14924       -0.09112
N         -1.37447        1.19074       -0.52937
O         -2.62853       -0.48085        0.16165
H          1.03249        1.81351       -0.22062
H          2.72748        1.45539        0.19341
H          1.44186        1.35226        1.42265
H         -0.02868       -0.93309        1.39566
H         -0.09153       -1.73306       -0.18220
H         -3.18329       -1.27499        0.26924
H         -2.64261        0.66937       -0.34958
