25
/mnt/e/work/rmlp/database/CAMD/log/success_log/ts_547_1_RR-A-9-a_opt.log
C         -1.00413        0.94573        0.67578
C          0.11500        1.53258       -0.82330
C          1.41614        1.30155       -0.39237
C          1.94486       -0.00278       -0.25968
C          3.27659       -0.17651        0.41219
N          1.66236       -0.96196       -1.19979
C         -2.35248        1.06744        0.24308
C         -3.01182       -0.00124       -0.29085
C         -2.40621       -1.26926       -0.30597
C         -1.14799       -1.45239        0.19785
C         -0.42562       -0.37599        0.77874
O          0.77671       -0.49762        1.18802
H         -0.63247        1.68820        1.37092
H         -0.30864        0.90449       -1.59483
H         -0.20874        2.56081       -0.89260
H          1.88242        2.05888        0.22114
H          3.37804       -1.19082        0.78826
H          3.37166        0.51122        1.24544
H          4.07093        0.01589       -0.30770
H          0.72080       -0.94935       -1.56585
H          1.96086       -1.89281       -0.94704
H         -2.83192        2.03465        0.29907
H         -4.02059        0.10615       -0.66173
H         -2.95538       -2.11002       -0.70645
H         -0.70321       -2.43747        0.23296
