19
/mnt/e/work/rmlp/database/CAMD/log/success_log/ts_59_1_NO2-A-12-d_opt.log
C         -3.24214       -0.19286        0.53229
O         -2.28559       -0.36706       -0.48847
N         -1.35675       -1.40501       -0.16250
C         -0.13683       -0.87204        0.38578
C          0.56073        0.18896       -0.50563
C         -0.11481        1.46437       -0.36486
N         -0.65718        2.45755       -0.21449
N          1.95483        0.43783       -0.16696
O          2.20326        0.43322        1.11858
O          2.87393       -1.06274       -0.36276
H         -3.92199        0.56505        0.15047
H         -2.78163        0.16394        1.45767
H         -3.78152       -1.12364        0.72588
H         -1.18378       -1.87421       -1.04948
H         -0.35106       -0.43323        1.36384
H          0.55171       -1.71006        0.52168
H          0.53580       -0.10217       -1.56350
H          3.00390       -0.56044        0.74633
H          3.60778       -0.91582       -0.96942
