24
/mnt/e/work/rmlp/database/CAMD/log/success_log/ts_56_1_NO2-B-8-e_opt.log
C          2.78661       -1.68254       -0.13077
N          2.46414       -0.82604        0.95247
C          1.53085        0.11025        0.83030
S          0.58430        0.26533       -0.73671
O         -0.16506       -0.94397       -0.95739
O          1.41000        0.73312       -1.81576
C         -0.65276        1.60683       -0.35465
C         -1.63916        0.88218        0.50238
O         -1.42366        0.51624        1.62298
O         -2.73953        0.63509       -0.21322
O         -3.67116       -0.22825        0.42225
C         -3.48968       -1.55204       -0.02751
O          3.73490        0.57988        0.87310
H          1.99685       -2.43881       -0.17380
H          2.81399       -1.17425       -1.09831
H          3.73563       -2.17274        0.07928
H          0.90440        0.28858        1.69546
H         -1.07706        1.94775       -1.29281
H         -0.12807        2.39449        0.17378
H         -3.75332       -1.65181       -1.08384
H         -2.46212       -1.89142        0.12923
H         -4.17606       -2.12702        0.59104
H          2.48577        1.04520        0.81406
H          4.68310        0.79190        0.91176
