24
/mnt/e/work/rmlp/database/CAMD/log/success_log/ts_50_1_S-D-12_opt.log
C         -2.49209       -1.57413       -0.38894
N         -2.50219       -0.16695       -0.07686
C         -3.19141        0.69841       -0.99834
S         -1.14215        0.45248        0.62944
O         -1.41522        1.79494        1.03493
O         -0.65680       -0.50177        1.57344
C          0.15853        0.54499       -0.72997
N          1.97300        1.31196       -1.34234
O          2.72479        0.43759       -1.39168
O          0.44496       -0.78778       -0.99839
C          1.18297       -1.53948       -0.14602
O          1.29327       -2.71671       -0.33574
C          1.84789       -0.87592        0.96822
N          2.47003       -0.46023        1.83293
O          1.96930        2.04461        0.27110
H         -1.92331       -2.08257        0.38545
H         -2.04439       -1.77864       -1.36709
H         -3.51672       -1.94633       -0.38034
H         -4.25729        0.47035       -0.97204
H         -2.83170        0.57983       -2.02678
H         -3.03821        1.72143       -0.66360
H         -0.35847        0.95912       -1.59489
H          0.90582        1.36749        0.07108
H          1.83493        2.98575        0.12196
