17
/mnt/e/work/rmlp/database/CAMD/log/success_log/ts_55_2_A-E-2_opt.log
C         -1.74917       -0.79600       -0.48821
C         -2.73984       -1.87866       -0.14352
C         -1.44641        0.20750        0.44597
O          0.41000       -0.79492        0.47310
C          1.69461       -0.91324        0.80662
Cl         2.82329       -0.24523       -0.45965
N         -0.87677        1.44914        0.03062
O         -0.73479        1.64254       -1.15664
O         -0.59049        2.23366        0.90985
H         -0.58535       -1.29794       -0.39255
H         -1.76037       -0.45746       -1.52371
H         -3.75466       -1.50983       -0.28671
H         -2.60557       -2.74141       -0.79007
H         -2.63169       -2.19216        0.89091
H         -1.67065        0.14995        1.49999
H          1.91161       -0.33819        1.71548
H          2.00513       -1.95596        0.95080
