17
/mnt/e/work/rmlp/database/CAMD/log/success_log/ts_58_3_S-B-8_opt.log
O          3.00802       -1.26861        0.40652
N          2.13768       -0.91926       -0.27180
C          0.79512        0.16201        0.79879
C         -0.27138        1.08871        0.33036
O         -0.42155        2.20595        0.75756
C         -1.16489        0.49416       -0.75283
C         -2.05036       -0.57841       -0.16141
O         -1.66068       -1.53981        0.44724
O         -3.33799       -0.33193       -0.38512
O          2.51530        0.66192       -1.03567
H          1.27776        0.48611        1.72032
H          0.34671       -0.82402        0.91280
H         -1.79089        1.26936       -1.19236
H         -0.52614        0.03447       -1.50851
H         -3.90042       -1.01893        0.00762
H          1.59536        0.68173       -0.14770
H          3.35811        0.98713       -0.70320
