13
/mnt/e/work/rmlp/database/CAMD/log/success_log/ts_5_1_E-2-a_opt.log
O         -2.45397       -0.42119       -0.29548
C         -1.43416       -0.25820        0.44230
N         -0.63637        0.57841       -0.13666
C          0.67191        1.01142        0.26571
O          1.69989        0.31330       -0.37929
C          1.81710       -1.03540        0.00968
H         -1.68815        0.44680       -0.98893
H         -1.31338       -0.75048        1.40023
H          0.77240        0.91978        1.36374
H          0.79947        2.05622       -0.03312
H          2.00272       -1.11845        1.08805
H          2.66636       -1.43657       -0.53837
H          0.91863       -1.60995       -0.24298
