14
/mnt/e/work/rmlp/database/CAMD/log/success_log/ts_66_1_NO2-A-12-d_opt.log
N         -0.19090        2.86606        0.00763
C          0.01763        1.76638       -0.21010
C          0.25697        0.35446       -0.45854
C         -0.76561       -0.50277        0.31350
O         -1.95134       -0.33833       -0.40034
F         -2.99193       -1.08003        0.21837
N          1.64413        0.10584       -0.07742
O          1.80168       -0.24557        1.17037
O          2.10244       -1.47756       -0.62299
H          0.16840        0.17490       -1.53603
H         -0.42525       -1.54823        0.30478
H         -0.85033       -0.15161        1.34977
H          2.31498       -1.34099        0.56511
H          2.87069       -1.43381       -1.20595
