30
/mnt/e/work/rmlp/database/CAMD/log/success_log/ts_62_1_NO2-B-2-d_opt.log
O          0.88086        1.86047        1.71348
C          0.74581        2.32150        0.60075
O          0.04800        3.46321        0.39450
C          1.27853        1.80485       -0.65533
N          1.73665        0.53343       -0.84384
C          1.64570       -0.44853        0.18011
C          2.66250       -1.55889       -0.06230
O          3.24956       -1.74920       -1.08810
O          2.82585       -2.28626        1.03545
C          0.22800       -1.08025        0.19323
O          0.03430       -2.22458        0.48601
O         -0.66291       -0.16053       -0.12602
C         -2.04398       -0.34057       -0.14295
C         -2.75675        0.80566       -0.48288
C         -4.13603        0.76537       -0.53379
C         -4.80708       -0.41311       -0.24735
C         -4.09078       -1.54715        0.08987
C         -2.70595       -1.52362        0.14587
O          3.46246        1.05712       -0.79870
H         -0.28020        3.79635        1.24334
H          0.87934        2.26447       -1.55257
H          1.78599       -0.05535        1.20092
H          3.42958       -3.02934        0.87485
H         -2.21179        1.71081       -0.70034
H         -4.68758        1.65508       -0.79718
H         -5.88529       -0.44501       -0.28680
H         -4.60873       -2.46715        0.31458
H         -2.15712       -2.41141        0.41112
H          2.67577        2.08597       -0.76028
H          4.07860        0.76814       -1.48511
