27
/mnt/e/work/rmlp/database/CAMD/log/success_log/ts_65_1_RR-A-13-c_opt.log
C          1.90805        0.73534        0.10844
O          1.17237        1.56329       -0.75005
C          0.78065        2.77894       -0.16231
C          1.87458       -0.66197       -0.25176
C          2.91538       -1.58410        0.25385
C          0.73380       -1.19302       -1.01040
C         -0.60390       -0.71461       -0.48875
C         -1.68784       -0.60130       -1.34138
C         -2.93390       -0.23514       -0.86956
C         -3.09526        0.06359        0.47987
C         -2.03199       -0.01654        1.34110
C         -0.74184       -0.40520        0.89761
O          0.26254       -0.44909        1.69047
H          1.34368        0.65328        1.13214
H          2.90991        1.13410        0.31549
H          0.24676        3.33352       -0.93105
H          0.11514        2.61012        0.69162
H          1.64973        3.35953        0.17075
H          2.48670       -2.24283        1.00969
H          3.27406       -2.21991       -0.55721
H          3.75260       -1.05036        0.69481
H          0.80171       -0.80601       -2.03265
H          0.77337       -2.28475       -1.05450
H         -1.56156       -0.82647       -2.39218
H         -3.77626       -0.18603       -1.54315
H         -4.06509        0.36717        0.84925
H         -2.13635        0.24910        2.38337
