19
/mnt/e/work/rmlp/database/CAMD/log/success_log/ts_687_1_S-A-19_opt.log
C         -2.15289        2.02167       -0.82351
O         -2.74976        0.82844       -0.32170
C         -2.09570       -0.05355        0.36940
O         -2.49369       -1.13257        0.66383
N         -0.77963        0.41989        0.93239
C          0.21848       -0.67262        1.32530
O          0.59697       -0.71750        2.45324
C          0.33480       -1.77914        0.30738
N          0.26253       -1.37887       -1.11859
O          1.01095       -1.92349       -1.87395
O         -0.61268       -0.59399       -1.42848
Br         1.88739        0.96438       -0.05140
H         -2.92517        2.49272       -1.42745
H         -1.29890        1.77631       -1.45685
H         -1.85993        2.69784       -0.01787
H         -0.93119        0.99063        1.77152
H         -0.50453       -2.46769        0.48538
H          1.27763       -2.30769        0.46983
H         -0.03923        0.99214        0.26304
