23
/mnt/e/work/rmlp/database/CAMD/log/success_log/ts_62_1_NO2-A-1-c_opt.log
O         -5.10606        0.09663        0.01689
N         -3.99222        0.54760       -0.61033
O         -3.51714        1.58284        0.07918
C         -1.58204       -0.28244        0.19718
C         -0.36701       -0.99845        0.41385
O          0.00774       -1.46729        1.47499
O          0.37956       -1.07409       -0.72495
C          1.63167       -1.71967       -0.61737
C          2.67496       -0.86715        0.10438
O          2.95504        0.24021       -0.72582
O          3.84872        1.13214       -0.07905
C          3.16213        2.26092        0.40079
H         -5.46676       -0.60679       -0.54204
H         -2.52858        1.51619        0.06705
H         -1.80303        0.00089       -0.81358
H         -2.28384       -0.29117        1.00771
H          1.95130       -1.90725       -1.64307
H          1.51626       -2.65931       -0.06534
H          2.28266       -0.54178        1.07569
H          3.58201       -1.46286        0.26631
H          3.93779        2.87084        0.86036
H          2.68616        2.81252       -0.41475
H          2.41051        1.99277        1.15103
