19
/mnt/e/work/rmlp/database/CAMD/log/success_log/ts_64_2_NO2-A-3-a_opt.log
O          3.72370       -1.30008        0.22022
N          2.87293       -0.84057       -0.41284
C          1.44361       -0.01746        0.79875
C          0.37959        0.96731        0.48347
O          0.18685        1.98125        1.10410
C         -0.47669        0.56711       -0.72368
C         -1.39774       -0.53355       -0.28235
O         -1.04257       -1.64262        0.01939
C         -2.87647       -0.11193       -0.21599
O         -3.34449        0.76619       -0.88882
O         -3.55376       -0.83603        0.65863
O          3.22672        0.86609       -0.82184
H          1.88532        0.12174        1.78461
H          1.02862       -1.01763        0.68877
H          0.19383        0.19020       -1.49640
H         -1.05407        1.42068       -1.07651
H         -4.48968       -0.57586        0.68883
H          2.27446        0.69564        0.00251
H          4.04542        1.14191       -0.39651
