20
/mnt/e/work/rmlp/database/CAMD/log/success_log/ts_61_1_R-A-2_opt.log
C          2.61238       -0.05044        0.97691
O          2.57795        0.74262       -0.20768
C          1.50160        0.56258       -1.02344
O          0.32800        1.32118       -0.56528
C         -0.40495        0.80908        0.32452
C         -1.65940        1.47648        0.77239
C         -2.64954        0.38206        0.32669
O         -2.06815       -0.16420       -0.84899
Cl        -0.13321       -2.19410        0.03808
H          3.66244       -0.15553        1.24152
H          2.08356        0.44802        1.79456
H          2.17349       -1.03464        0.80229
H          1.17515       -0.48980       -1.09759
H          1.73760        0.99999       -1.99642
H         -0.18274       -0.19617        0.71999
H         -1.66334        1.65334        1.84771
H         -1.82135        2.40787        0.23212
H         -2.76509       -0.38048        1.09990
H         -3.62959        0.79278        0.07200
H         -1.60833       -1.02116       -0.65030
