23
/mnt/e/work/rmlp/database/CAMD/log/success_log/ts_64_1_S-B-9_opt.log
C         -1.70229        2.29613        0.14058
O         -0.56647        1.52060       -0.15527
C         -0.50852        0.29459        0.49203
N         -2.20492       -0.64973       -0.37915
O         -2.83719       -1.20722        0.42998
C          0.93682       -0.14766        0.77653
O          1.19443       -0.61983        1.86969
N          1.84046       -0.01151       -0.20798
C          1.57236        0.47812       -1.53855
C          3.23185       -0.26893        0.09005
O         -0.95920       -1.75597       -1.09597
H         -1.76769        2.51173        1.21281
H         -1.59149        3.22625       -0.41280
H         -2.61584        1.78539       -0.17852
H         -1.02808        0.28404        1.45491
H          2.26151       -0.01124       -2.22737
H          0.55595        0.25086       -1.84644
H          1.72323        1.55845       -1.59696
H          3.61486       -1.05746       -0.56075
H          3.31010       -0.58830        1.12714
H          3.82493        0.63571       -0.05892
H         -0.58087       -0.79784       -0.34955
H         -0.98937       -2.58303       -0.60496
