24
/mnt/e/work/rmlp/database/CAMD/log/success_log/ts_60_1_NO2-A-8-c_opt.log
O         -3.85491        0.02365       -0.40569
N         -3.03849       -0.38915        0.61989
O         -2.56163       -1.60271        0.30499
C         -0.66717        0.13503        0.16443
S          0.52299        1.44736        0.01862
O          0.03162        2.50174       -0.83300
O          1.02448        1.81214        1.31966
C          1.80444        0.45624       -0.87853
N          1.33916       -0.87948       -0.58792
C          1.10329       -1.74211       -1.72454
O          2.18710       -1.54440        0.33374
C          1.80193       -1.32717        1.67919
H         -4.28392        0.83104       -0.09204
H         -1.56532       -1.53900        0.27790
H         -1.27960        0.13516       -0.71353
H         -1.04009        0.05104        1.16545
H          1.75886        0.69787       -1.93658
H          2.79704        0.65071       -0.47632
H          2.02147       -1.94766       -2.28410
H          0.37789       -1.26308       -2.37771
H          0.69550       -2.68428       -1.36202
H          1.72405       -0.26179        1.90756
H          0.85443       -1.82625        1.90084
H          2.59887       -1.77638        2.26788
