31
/mnt/e/work/rmlp/database/CAMD/log/success_log/ts_77_1_S-D-14_opt.log
C          0.81011       -3.17827        0.79302
C          1.38478       -2.19370       -0.17870
O          2.52362       -2.13095       -0.54050
O          0.41780       -1.34756       -0.61184
C          0.82574       -0.21710       -1.36960
C          0.93792        1.00405       -0.49104
N          2.84739        1.64726       -0.84975
O          3.36738        0.93097       -1.59377
S         -0.20175        0.85908        0.96835
O         -0.29649        2.19642        1.49002
O          0.22530       -0.16727        1.87670
C         -1.79073        0.41409        0.24622
C         -2.44047        1.34821       -0.53573
C         -3.66202        1.01742       -1.09914
C         -4.20970       -0.23610       -0.87249
C         -3.54876       -1.15848       -0.07646
C         -2.32679       -0.83297        0.48948
O          3.12555        1.12883        0.82795
H          0.60989       -2.63110        1.71379
H          1.52548       -3.97165        0.98386
H         -0.12414       -3.58249        0.41393
H          1.81089       -0.43730       -1.82920
H          0.08679       -0.09746       -2.16889
H          0.58663        1.91881       -0.95729
H         -2.00047        2.32289       -0.67753
H         -4.18563        1.73566       -1.71141
H         -5.16071       -0.49254       -1.31473
H         -3.98514       -2.12890        0.10459
H         -1.78382       -1.51914        1.11761
H          1.91950        0.96844        0.44156
H          3.21144        1.95228        1.31668
