28
/mnt/e/work/rmlp/database/CAMD/log/success_log/ts_73_1_S-A-9_opt.log
C          2.65038        0.48203        0.94712
O          2.24094       -0.65848        0.21136
C          2.13262       -0.46279       -1.16646
C          0.86681        0.32120       -1.60292
C         -0.34192       -0.50199       -1.30557
O         -0.71814       -1.47618       -1.89200
O         -1.03264       -0.01369       -0.20478
C         -1.90532       -0.93535        0.45516
C         -1.10911       -2.07218        1.14294
N         -0.09420       -1.65426        2.06788
C         -2.08227        1.46700       -0.79974
Cl        -0.33077        2.40165        0.79088
H          3.55322        0.92091        0.51033
H          2.86942        0.12902        1.95295
H          1.86299        1.23915        0.99220
H          2.10418       -1.46306       -1.60902
H          3.01186        0.07510       -1.54818
H          0.80782        1.26443       -1.05840
H          0.93636        0.48744       -2.67789
H         -2.61892       -1.36545       -0.25573
H         -2.42538       -0.33951        1.20757
H         -1.84904       -2.67717        1.67885
H         -0.64248       -2.69962        0.38057
H         -0.44935       -0.96453        2.72051
H          0.70279       -1.25581        1.58212
H         -2.62351        1.88499        0.02765
H         -2.63989        0.74866       -1.38860
H         -1.50598        2.16659       -1.37502
