19
/mnt/e/work/rmlp/database/CAMD/log/success_log/ts_75_1_S-F-4_opt.log
C          0.93268       -0.50882        1.97042
N          0.65640       -0.30174        0.57008
C          0.22058       -1.42495       -0.20622
O         -1.17023       -1.52849       -0.34661
C         -1.80455       -0.43265       -0.98255
C         -2.17419        0.59561       -0.02515
N         -2.45475        1.36541        0.77185
N          1.97164        0.52671       -0.16679
O          2.28584        0.03555       -1.18504
O          0.66563        1.78501       -0.46011
H          1.42319        0.38063        2.36016
H          1.58445       -1.37286        2.12127
H         -0.00129       -0.66828        2.51225
H          0.52771       -2.37433        0.24772
H          0.70364       -1.32633       -1.20183
H         -2.71743       -0.82663       -1.44340
H         -1.16397        0.01173       -1.75840
H          0.19931        0.80733        0.24427
H          0.93427        2.52443        0.08708
