17
/mnt/e/work/rmlp/database/CAMD/log/success_log/ts_73_1_NO2-A-3-d_opt.log
O          0.20596       -1.12520        0.95595
N         -0.44276       -1.14199       -0.19881
C         -1.72809       -0.50125       -0.12705
C         -1.63411        1.02099       -0.03863
O         -2.62245        1.68605        0.08541
C         -0.25388        1.65561       -0.07381
O          0.67912        0.90290       -0.79176
N          1.85602        0.47215       -0.08378
O          2.48354       -0.29847       -0.70743
O          2.06162        0.99511        0.95093
O         -0.70017       -2.84355       -0.08785
H         -2.30165       -0.81739        0.75540
H         -2.28848       -0.74605       -1.03287
H          0.08664        1.75854        0.97045
H         -0.33452        2.65827       -0.50659
H          0.00350       -2.47814        0.79635
H         -0.22287       -3.27323       -0.80958
