24
/mnt/e/work/rmlp/database/CAMD/log/success_log/ts_785_2_R-A-7_opt.log
O         -1.82763       -1.36269        0.93386
C         -1.62156       -1.00082       -0.41290
C         -0.99722       -2.17861       -1.15468
C         -0.78036        0.25065       -0.53832
N          0.79924       -0.43827        0.81194
O          2.05901       -0.95956        0.42647
C          3.04954        0.03271        0.25306
C          2.78641        0.98862       -0.90471
C         -1.36467        1.52825       -0.05466
O         -1.92095        2.44683       -0.57834
O         -0.99785        1.25049        1.14207
H         -1.94357       -0.54460        1.44432
H         -2.60256       -0.76539       -0.87204
H         -0.98156       -1.97825       -2.22167
H         -1.59410       -3.06674       -0.96811
H          0.01580       -2.36023       -0.80817
H          0.07472        0.23991       -1.19744
H          0.28152       -1.21645        1.22507
H          3.17239        0.59910        1.18805
H          3.95432       -0.55134        0.07135
H          1.92329        1.61794       -0.70013
H          3.65241        1.62925       -1.04334
H          2.61492        0.42998       -1.82170
H          0.90432        0.30929        1.50101
