27
/mnt/e/work/rmlp/database/CAMD/log/success_log/ts_72_1_A-E-19_opt.log
C          1.38949       -0.20711        0.47727
C          2.42448        0.83166        0.20217
O          3.51438        0.36899       -0.56269
N          4.48886       -0.37224        0.13035
O          4.28917       -0.54905        1.28503
O          5.38160       -0.72031       -0.55198
C          0.14876        0.23326        1.01877
C         -0.21273        0.36639       -0.68262
O         -0.14571        1.53537       -1.06907
O         -1.18297       -0.57256       -0.90216
C         -2.44794       -0.33293       -0.38599
C         -3.32082       -1.41538       -0.40519
C         -4.61049       -1.26027        0.06540
C         -5.03086       -0.03635        0.56086
C         -4.15728        1.03650        0.57258
C         -2.86260        0.89689        0.10128
H          0.75357       -0.29901       -1.06333
H          1.67149       -1.25053        0.49710
H          1.95117        1.62969       -0.39625
H          2.78093        1.26449        1.14654
H         -0.48273       -0.49485        1.50659
H          0.10295        1.22533        1.44205
H         -2.97526       -2.35818       -0.79866
H         -5.28847       -2.10027        0.04760
H         -6.03782        0.08029        0.93164
H         -4.48167        1.99526        0.94805
H         -2.18796        1.73788        0.08607
