22
/mnt/e/work/rmlp/database/CAMD/log/success_log/ts_701_1_S-A-17_opt.log
C          0.61050        1.33725        1.59835
C          0.04232        1.65433        0.24813
O         -0.18756        2.72862       -0.20950
N         -0.76974        0.45511       -0.33699
C         -1.49847       -0.46305        0.49853
N         -2.86176       -0.71726       -0.07555
O         -3.14477       -0.12615       -1.08481
O         -3.55181       -1.48828        0.52896
O          1.43819        0.81968       -0.93335
C          2.59460        0.27006       -0.57313
N          2.39572       -1.14659       -0.08424
O          1.24374       -1.53779       -0.01018
O          3.36859       -1.79237        0.20865
H          1.50707        1.93451        1.74419
H         -0.10886        1.64611        2.35645
H          0.84013        0.28469        1.72265
H         -1.39481        0.81794       -1.07387
H         -1.65802       -0.07328        1.50985
H         -0.98751       -1.43097        0.56823
H          0.21055        0.09438       -0.82573
H          3.10949        0.78445        0.25651
H          3.30770        0.18204       -1.41038
