17
/mnt/e/work/rmlp/database/CAMD/log/success_log/ts_74_1_NO2-A-10-d_opt.log
C         -1.79809        1.49328       -0.34798
N         -2.07338        0.07035       -0.44914
O         -1.52995       -0.60932        0.69686
C         -0.54025       -1.51721        0.31082
N          0.53194       -0.91183       -0.43323
N          1.57474       -0.45128        0.15670
O          2.47367        0.01611       -0.71051
O          1.40054        1.35878        0.72174
H         -2.31534        1.97677        0.48606
H         -2.11057        1.95007       -1.28506
H         -0.72579        1.63018       -0.21400
H         -3.07819       -0.09585       -0.40291
H         -0.13953       -1.91611        1.24587
H         -0.96539       -2.31794       -0.31169
H          0.33309       -0.62552       -1.39571
H          2.35681        1.05096       -0.11753
H          1.68776        1.41578        1.63293
