28
/mnt/e/work/rmlp/database/CAMD/log/success_log/ts_84_1_NO2-A-7-e_opt.log
N         -1.76402        2.80213       -0.18507
N         -1.94472        1.90116       -1.26182
C         -1.05706        0.76892       -1.32597
C         -1.24546       -0.32029       -0.25064
N         -1.48339       -1.54736       -0.74645
O         -1.06900       -2.58113        0.02916
S         -0.25071       -0.23314        1.34593
O         -0.49379        1.13092        1.83417
C          1.35548       -0.15108        0.49664
C          1.92965       -1.30499       -0.00766
C          3.16082       -1.22591       -0.63532
C          3.80827       -0.00482       -0.74537
C          3.23336        1.14160       -0.22121
C          2.00245        1.06789        0.40725
O         -3.32845       -1.23874       -0.11661
H         -1.53720        2.32373        0.69550
H         -0.97898        3.40760       -0.41247
H         -2.91485        1.59616       -1.25764
H         -0.02772        1.14057       -1.27431
H         -1.20649        0.28760       -2.29565
H         -1.39197       -3.38701       -0.40583
H          1.41645       -2.24869        0.09171
H          3.61810       -2.11803       -1.03611
H          4.76839        0.05161       -1.23601
H          3.74276        2.09030       -0.29902
H          1.53418        1.93989        0.84090
H         -2.42402       -0.19014        0.18276
H         -4.23731       -1.57112       -0.05552
