20
/mnt/e/work/rmlp/database/CAMD/log/success_log/ts_80_1_R-B-10_opt.log
C          0.13419        1.84135        0.36100
C          0.17173        0.77317       -0.70268
C          1.53835       -0.52831       -0.32470
N          2.65102       -0.04476        0.29953
O          0.83017       -1.38468        0.34450
C         -0.63445       -0.38552       -0.62703
C         -1.68029       -0.64288        0.41259
N         -2.92129       -0.01923       -0.05252
H         -0.73866        2.48937        0.25266
H          1.02079        2.46991        0.28707
H          0.11099        1.39902        1.35442
H          0.41996        1.14185       -1.69051
H          1.73311       -0.70815       -1.38980
H          3.29529        0.55319       -0.18733
H          2.60460        0.04496        1.30122
H         -0.71369       -1.00021       -1.51321
H         -1.85111       -1.71727        0.49608
H         -1.33982       -0.27422        1.38945
H         -3.66487       -0.20702        0.61077
H         -2.80333        0.98705       -0.11099
