26
/mnt/e/work/rmlp/database/CAMD/log/success_log/ts_88_2_A-E-26_opt.log
O         -5.28839        0.19960        0.29388
N         -4.25115       -0.38165        0.12012
O         -4.10085       -1.46869       -0.36883
C         -2.98763        0.33738        0.59473
N         -1.83854       -0.41308        0.29556
C         -1.08974       -0.22931       -0.82731
C          0.05850       -1.04363       -1.09585
C          1.48522       -0.49761       -0.28967
C          2.63827       -0.61871       -1.11024
C          3.76590       -1.27051       -0.66881
C          3.82321       -1.80713        0.61007
C          2.72941       -1.65616        1.45708
C          1.59963       -1.00152        1.03695
S          0.65016        1.29551       -0.35903
Cl         1.67898        2.96645        0.30743
H         -3.12318        0.49456        1.66891
H         -2.97795        1.30704        0.08855
H         -1.56054       -1.15034        0.92442
H         -1.48865        0.44748       -1.56293
H         -0.01801       -2.05999       -0.72411
H          0.33456       -1.02792       -2.14271
H          2.61350       -0.18063       -2.09701
H          4.61990       -1.34959       -1.32519
H          4.71342       -2.30909        0.95402
H          2.77434       -2.03866        2.46641
H          0.77270       -0.85165        1.71596
