28
/mnt/e/work/rmlp/database/CAMD/log/success_log/ts_85_1_NO2-A-7-e_opt.log
N          0.37394        3.19906       -0.81079
C         -0.72712        2.40390       -0.35068
N         -0.68801        1.04225       -0.89357
C         -1.40376        0.04219       -0.22030
N         -1.95642       -0.90599       -1.01353
O         -2.01475       -2.14559       -0.44444
S         -0.51416       -0.58920        1.35145
O         -0.47790        0.55898        2.25731
C          1.10168       -0.60333        0.52417
C          1.40546       -1.62108       -0.36222
C          2.63870       -1.62116       -0.99073
C          3.55364       -0.61399       -0.72403
C          3.24401        0.39254        0.17658
C          2.01224        0.39624        0.80812
O         -3.67920       -0.09640       -0.41155
H          1.25396        2.77068       -0.54636
H          0.35886        3.29331       -1.82044
H         -0.66989        2.32340        0.73750
H         -1.66172        2.91635       -0.62113
H         -0.84429        1.00608       -1.89577
H         -2.56995       -2.67549       -1.03772
H          0.68116       -2.39688       -0.55790
H          2.88857       -2.40685       -1.68803
H          4.51415       -0.61679       -1.21770
H          3.96169        1.17168        0.38758
H          1.74091        1.15861        1.52364
H         -2.46157        0.45324        0.24547
H         -4.64607       -0.10520       -0.48327
