23
/mnt/e/work/rmlp/database/CAMD/log/success_log/ts_83_1_S-B-4-a_opt.log
O          0.71813       -2.10335       -0.61948
C          0.49378       -0.87967       -0.33919
C          1.80029       -0.19641       -0.32630
C          2.04949        1.04849       -0.99731
O          1.31542        1.58879       -1.80548
O          2.60798       -0.51509        0.79860
C          2.30163        0.23724        1.95432
C         -0.82434       -0.35769       -0.10009
C         -1.01374        0.96871        0.30680
C         -2.29015        1.43972        0.53649
C         -3.38415        0.60108        0.37470
C         -3.20572       -0.71690       -0.02333
C         -1.93632       -1.19619       -0.26654
H          1.95743       -1.64646       -0.77829
H          3.07105        1.43847       -0.80584
H          3.04546       -0.04042        2.69916
H          1.30042        0.00093        2.33403
H          2.36453        1.31261        1.75764
H         -0.16181        1.61816        0.42564
H         -2.43797        2.46418        0.84262
H         -4.38021        0.97703        0.55587
H         -4.06103       -1.36331       -0.15022
H         -1.77466       -2.21432       -0.58714
