14
/mnt/e/work/rmlp/database/CAMD/log/success_log/ts_8_1_A-E-20_opt.log
C         -0.67752       -0.09212        0.62143
C         -0.45431       -1.32798       -0.06955
Br         2.40530        0.00049       -0.05702
C         -1.77329        0.82904        0.05584
O         -1.64849        2.00630       -0.07566
O         -2.93718        0.24121       -0.24750
C         -3.20301       -1.12493       -0.07840
H          0.28325        0.50494        0.51690
H         -0.85786       -0.22792        1.69124
H         -0.28976       -1.31839       -1.13445
H         -0.17967       -2.22044        0.46645
H         -3.90740       -1.41310       -0.85777
H         -3.63508       -1.31134        0.90884
H         -2.26502       -1.71517       -0.18633
