13
/mnt/e/work/rmlp/database/CAMD/log/success_log/ts_99_1_NO2-A-10-c_opt.log
O          2.55847        1.05088       -0.76218
N          2.13760       -0.22218       -0.53384
O          2.98113       -0.86781        0.24896
N          0.93317       -0.20404        0.66105
C         -0.33647       -0.74996        0.23941
C         -1.42395        0.29177        0.25072
O         -1.33051        1.39457        0.67702
Cl        -2.92377       -0.30812       -0.42766
H          3.30919        1.25968       -0.16958
H          1.84730       -0.89144        1.07962
H          0.79949        0.71170        1.10149
H         -0.21450       -1.15259       -0.77187
H         -0.64297       -1.57770        0.88889
