22
FINAL SINGLE POINT ENERGY      -627.861511813829
 C                 -2.72531100    2.41395500   -0.06440800
 O                 -1.80464800    1.37923600    0.19353300
 C                 -1.42009200    0.71090000   -0.98397900
 C                 -0.30489500   -0.23729100   -0.60616700
 N                 -0.20573500   -1.29255500   -1.49800700
 O                  1.03841700   -1.74883500   -1.55217300
 C                  0.97915600    0.45155700   -0.19072600
 O                  1.36990800    1.47030200   -0.69524000
 O                  1.60109500   -0.18597800    0.79881600
 C                  2.83356900    0.41241800    1.21893600
 O                 -1.04426800   -2.34416100    0.01840800
 H                 -3.64289300    2.02483500   -0.52089700
 H                 -2.97093100    2.87564000    0.88910300
 H                 -2.29444000    3.17010500   -0.73041400
 H                 -2.24926900    0.13024000   -1.40396100
 H                 -1.06986100    1.43202000   -1.73288200
 H                  0.99636500   -2.49563700   -2.16586000
 H                  3.20664200   -0.21840500    2.01914600
 H                  3.54033300    0.44329200    0.39138800
 H                  2.65885700    1.42559100    1.57595100
 H                 -0.73845000   -0.98073300    0.27792500
 H                 -1.43220200   -3.19270900    0.28436600
