39
FINAL SINGLE POINT ENERGY      -806.317603416711
 C                 -5.58886700   -1.92120900    1.94653900
 C                 -5.49424600   -0.95281600    0.77190000
 N                 -4.37749000   -0.03132600    0.84948000
 C                 -3.06614100   -0.42618900    0.71028300
 C                 -2.04152400    0.44724000    1.12098800
 C                 -0.72123900    0.10254000    0.96436000
 C                 -0.34657000   -1.11298500    0.37432100
 C                 -1.37019700   -1.97968000   -0.00531900
 C                  1.33345900   -1.78167100    0.89549000
 O                  1.75090600   -1.35796800    1.95839600
 C                 -2.70808700   -1.65836200    0.15013100
 N                  2.00095100   -1.26434800   -0.47629700
 C                  2.83137100   -2.26413700   -1.14204400
 C                  2.62209300    0.02502400   -0.36001800
 C                  2.12309300    1.07511700   -1.11813600
 C                  2.69920000    2.33433000   -1.02650500
 C                  3.77286400    2.54303900   -0.17440900
 C                  4.26736300    1.49176900    0.58644800
 C                  3.69504700    0.23255900    0.49942900
 H                 -6.43457300   -2.59889600    1.82019200
 H                 -4.68163800   -2.51891400    2.03715000
 H                 -5.72612100   -1.37666400    2.88200000
 H                 -5.43066300   -1.49939600   -0.17078100
 H                 -6.40243900   -0.35186000    0.70873200
 H                 -4.51419000    0.76341100    1.45140000
 H                 -2.31073700    1.39379100    1.57767400
 H                  0.05365800    0.76694200    1.33257100
 H                 -1.11961600   -2.94492700   -0.43811500
 H                  1.12649700   -2.84554600    0.68532500
 H                 -3.46797000   -2.36432800   -0.15553200
 H                  0.69403800   -1.10030700   -0.49606100
 H                  3.75401900   -2.45018300   -0.58482200
 H                  2.27510800   -3.19683200   -1.22820500
 H                  3.09047500   -1.92200200   -2.14355300
 H                  1.28180000    0.89696800   -1.77702600
 H                  2.30813400    3.14963900   -1.62127500
 H                  4.22356300    3.52430500   -0.10029500
 H                  5.09879000    1.65555000    1.25974800
 H                  4.05518400   -0.58200700    1.11113300
