26
#Cluster:1
O          -5.52970000      0.04250000      0.80360000
N          -4.61450000     -0.96470000      0.68350000
O          -4.62580000     -1.32120000     -0.55280000
C          -2.69580000      0.16980000     -0.21430000
C          -1.50285810      0.83638317     -0.68504451
O          -1.57363530      1.92513306     -1.25342928
C          -0.20913097      0.11098271     -0.58633799
C           0.05670341     -0.84907572      0.39048223
C           1.28515434     -1.46938644      0.44179274
C           2.27672181     -1.15331152     -0.48816722
O           3.45421114     -1.83863000     -0.35609347
C           4.43268345     -1.71130124     -1.35160633
O           5.05095256     -0.46895931     -1.37777655
C           2.03040903     -0.18383683     -1.45471742
C           0.79957691      0.43976342     -1.48958554
H          -5.62799586      0.24184495      1.74543947
H          -3.96600000     -0.68180000     -1.09330000
H          -3.53264818      0.83736925     -0.10979765
H          -2.58754010     -0.77833186      0.27092802
H          -0.68386114     -1.09947468      1.13522751
H           1.50575385     -2.20862287      1.19559918
H           4.00518716     -1.86178966     -2.35153794
H           5.14810957     -2.51782825     -1.13185330
H           5.44557364     -0.28638673     -0.51637009
H           2.79581303      0.10173170     -2.15839892
H           0.59667488      1.20178722     -2.22722708
