27
Properties=species:S:1:pos:R:3:forces:R:3 charge=0 spin=1 energy=-18427.55722010322 pbc="F F F"
C        2.05190646       0.36941108      -0.09643176      -0.00036174       0.00011172       0.00071028
O        1.41819920       1.15836272      -1.06293123       0.00009786       0.00101351       0.00110398
C        0.86902405       2.32499404      -0.56764946       0.00104957       0.00121233      -0.00134267
F        1.87563508       3.20668891      -0.20933569       0.00078408       0.00041009      -0.00051824
C        1.76689606      -1.00992656      -0.13629360      -0.00053133       0.00049326       0.00017856
C        2.69351904      -1.94395183       0.54726522      -0.00011847       0.00037857       0.00059125
C        0.63288025      -1.53619917      -0.93505224       0.00003516       0.00033436      -0.00032121
C       -0.67339698      -0.90600750      -0.50478882      -0.00008490      -0.00076459       0.00026299
C       -1.76248521      -0.76032410      -1.35181006      -0.00082166      -0.00116520      -0.00006474
C       -2.93810483      -0.19184269      -0.88995340      -0.00052251      -0.00052561      -0.00009564
C       -3.00530281       0.25464656       0.42779976       0.00052682      -0.00108874      -0.00000005
C       -1.92061642       0.13152693       1.27633758       0.00014995      -0.00020542      -0.00019621
C       -0.72756052      -0.45481767       0.82680180       0.00021360       0.00055056       0.00039513
O        0.35600775      -0.56058630       1.57550170       0.00019831       0.00050110       0.00043052
H        3.06888582       0.67022349       0.14535930      -0.00078220       0.00083975       0.00048212
H        1.35041589       0.28188349       0.95886424       0.00177468      -0.00056682      -0.00026037
H        0.29194173       2.77678718      -1.37190966      -0.00038800      -0.00087988       0.00050940
H        0.27035422       2.14292947       0.32810870      -0.00007655       0.00033477      -0.00065436
H        3.33783304      -1.43278977       1.25971878       0.00088030      -0.00047144      -0.00072290
H        3.32652854      -2.39574641      -0.22555295      -0.00113516      -0.00204089       0.00030504
H        2.14494014      -2.73667063       1.04867476      -0.00045673      -0.00004463       0.00045907
H        0.60232600      -2.62521965      -0.86128431       0.00060297       0.00045619      -0.00079088
H        0.82326071      -1.26307730      -1.97790535      -0.00076643       0.00112845       0.00000439
H       -1.69138850      -1.09900185      -2.37949865      -0.00021041      -0.00002427       0.00013103
H       -3.79295736      -0.09647487      -1.54591010      -0.00012831       0.00097593      -0.00088458
H       -3.91759369       0.71000013       0.79348805       0.00027366      -0.00092015      -0.00016736
H       -1.96076669       0.49710129       2.29454138      -0.00020247      -0.00004284       0.00045559
