27
Properties=species:S:1:pos:R:3:masses:R:1:forces:R:3 charge=0 spin=1 energy=-18429.67104708866 pbc="F F F"
C        2.11236976       0.32155094      -0.41781411      12.00000000       0.00118373       0.00024285       0.00055566
O        1.12398095       1.16835929      -0.85734973      15.99491462      -0.00082761      -0.00001237       0.00202297
C        0.97584911       2.33438469      -0.12908779      12.00000000       0.00171363       0.00077421       0.00328222
F        2.07007292       3.15990163      -0.32294736      18.99840316       0.00251532      -0.00026752      -0.00071901
C        1.93604489      -0.99448466      -0.34179338      12.00000000      -0.00018534      -0.00027477       0.00009517
C        3.10042612      -1.88315601      -0.00713958      12.00000000      -0.00013201       0.00084065      -0.00341598
C        0.62590022      -1.70227600      -0.62171294      12.00000000      -0.00004870      -0.00045474       0.00065821
C       -0.65885406      -0.95859442      -0.34135137      12.00000000      -0.00009209      -0.00039320       0.00020761
C       -1.65162384      -0.87095033      -1.30840882      12.00000000      -0.00064531      -0.00194393       0.00010628
C       -2.86471141      -0.24678227      -1.05782048      12.00000000       0.00000128      -0.00221045      -0.00001942
C       -3.09634541       0.30986679       0.19069614      12.00000000      -0.00058755      -0.00073459      -0.00046085
C       -2.11760036       0.24818551       1.16944525      12.00000000      -0.00056228       0.00028170      -0.00051435
C       -0.90892356      -0.37954944       0.90522999      12.00000000      -0.00028514       0.00064539       0.00016601
O        0.00952114      -0.40308185       1.91872844      15.99491462      -0.00036498       0.00358429      -0.00085276
H        3.06817021       0.79083030      -0.20690270       1.00782503      -0.00094532      -0.00064957      -0.00025233
H        0.88286659      -0.58612385       1.54639062       1.00782503      -0.00013770      -0.00012863       0.00031811
H        0.09361797       2.83865652      -0.51603010       1.00782503      -0.00107976       0.00117213       0.00005962
H        0.90666751       2.13734207       0.94363852       1.00782503       0.00068090       0.00020560      -0.00022123
H        4.00954382      -1.30894562       0.16677637       1.00782503       0.00099370       0.00056560       0.00026447
H        3.29312714      -2.58439548      -0.82298853       1.00782503       0.00043744       0.00013192      -0.00081954
H        2.89362904      -2.48294531       0.88265834       1.00782503      -0.00070235      -0.00075772       0.00035252
H        0.63019467      -2.62632610      -0.03249581       1.00782503      -0.00070299      -0.00017469       0.00030809
H        0.61974359      -2.02428584      -1.66700220       1.00782503       0.00022491      -0.00026991      -0.00003969
H       -1.46483595      -1.30582931      -2.28365910       1.00782503      -0.00020143      -0.00042674      -0.00041477
H       -3.61939861      -0.19694148      -1.83111211       1.00782503      -0.00048056       0.00045333       0.00023656
H       -4.03772715       0.79899734       0.40567266       1.00782503       0.00036445      -0.00009342      -0.00092919
H       -2.26889765       0.68260013       2.14898783       1.00782503      -0.00013422      -0.00010527       0.00002570
