18
Properties=species:S:1:pos:R:3:forces:R:3 charge=0 spin=1 energy=-9465.324266649239 pbc="F F F"
C       -1.65181426       1.09194626      -0.11502738       0.00061014       0.00044118      -0.00082037
C       -1.57043301      -0.07662056      -0.84313210      -0.00001423      -0.00111785      -0.00025180
C       -1.07162150      -1.25796131      -0.27756930       0.00032340      -0.00001534       0.00031673
C       -0.63354664      -1.30330973       1.01543861       0.00146118       0.00140488       0.00055460
C        0.96209067       0.49761504       0.87796097       0.00007199       0.00006704       0.00022703
C        0.31537330       1.57179325       0.29818849       0.00090876       0.00089280       0.00095291
C        1.77086651      -0.39060091       0.04256865       0.00033086      -0.00000445      -0.00004613
O        1.78621414      -0.35312419      -1.16917389       0.00045249       0.00096870      -0.00000033
H       -1.87058446       1.04944329       0.94322394      -0.00047542      -0.00000875      -0.00087028
H       -1.99035846       1.99408991      -0.60870366      -0.00109687      -0.00012674       0.00048957
H       -1.69782334      -0.03789023      -1.91829632       0.00052110      -0.00143800      -0.00048390
H       -0.84341596      -2.08487474      -0.93894023      -0.00162444       0.00052292      -0.00011597
H       -0.11948697      -2.17863666       1.39117256      -0.00030511      -0.00024229       0.00056589
H       -1.00883704      -0.62135003       1.76275669       0.00012366       0.00036038      -0.00094757
H        1.08338535       0.42925617       1.95162003      -0.00038381      -0.00046072       0.00057064
H        0.04003705       2.41427128       0.91936588       0.00003225       0.00120250       0.00074564
H        0.56035041       1.79248257      -0.73174750      -0.00051685      -0.00131755       0.00077068
H        2.38482921      -1.13315340       0.58803355      -0.00041898      -0.00112873      -0.00165741
