23
Properties=species:S:1:pos:R:3:forces:R:3 charge=0 spin=1 energy=-15094.465165519916 pbc="F F F"
C       -1.65284542      -1.41462498      -0.57239702       0.00013357      -0.00074878      -0.00085613
C       -2.78677426      -0.70596050      -0.27492629      -0.00000616      -0.00018412      -0.00146123
C       -2.78907779       0.69820633      -0.27566637       0.00023968       0.00039543      -0.00099557
C       -1.65740097       1.41055059      -0.57307382      -0.00059097       0.00116441       0.00008340
C       -0.28978091       0.68819980       1.05205762       0.00005673      -0.00017626      -0.00029717
C       -0.28755979      -0.68802482       1.05182756      -0.00144062      -0.00012049      -0.00058161
C        0.93973984       1.15456862       0.34501667      -0.00103020       0.00002098      -0.00009208
C        0.94325414      -1.14683476       0.34319090      -0.00053576       0.00006816      -0.00088147
O        1.34564826      -2.27091404       0.17211694      -0.00039988       0.00018125      -0.00044387
O        1.33237920       2.28278836       0.18021096      -0.00069654      -0.00041049      -0.00074538
H       -0.92044516      -1.01055773      -1.25765657       0.00031783      -0.00046722       0.00069447
H       -1.61347210      -2.48727055      -0.44025818      -0.00034059      -0.00087660       0.00211149
H       -3.63492068      -1.22351046       0.15771617      -0.00020149       0.00005992      -0.00058234
H       -3.63928371       1.21332954       0.15587557       0.00065380      -0.00024318       0.00017245
H       -1.62230093       2.48338790      -0.44134730       0.00045046       0.00134432       0.00183781
H       -0.92274991       1.00907999      -1.25746886       0.00008790      -0.00058172       0.00114125
H       -0.78792785       1.32845995       1.75958660       0.00115832       0.00027436       0.00135663
H       -0.78337562      -1.33000451       1.75947924       0.00073533       0.00000919      -0.00048979
N        1.57506970       0.00419357      -0.11950421      -0.00037051       0.00014237       0.00015100
C        2.80112334      -0.00296585      -0.89232189      -0.00034930      -0.00072704       0.00030469
H        3.52254159      -0.67272734      -0.42813079       0.00043834       0.00200602       0.00034273
H        2.61623655      -0.33945718      -1.91240836       0.00143651      -0.00148789       0.00069614
H        3.18719846       1.01316807      -0.90711958       0.00025376       0.00035740      -0.00146550
