19
Properties=species:S:1:pos:R:3:forces:R:3 charge=0 spin=1 energy=-14565.912201715006 pbc="F F F"
C        1.64966763      -1.41228243       0.33249911       0.00022127       0.00022834      -0.00039958
C        1.74901615      -0.69946917      -0.84143788      -0.00026540      -0.00002105      -0.00129641
C        1.74914380       0.69871256      -0.84178071      -0.00056785      -0.00028682       0.00028785
C        1.64994371       1.41206882       0.33181528      -0.00035005       0.00058082      -0.00058978
C       -0.26489077       0.68907797       1.15916148       0.00095207       0.00025331       0.00030669
C       -0.26473765      -0.68909710       1.15879266      -0.00106917       0.00055818      -0.00096480
C       -1.04828099       1.13633183      -0.01503275       0.00036494      -0.00041396      -0.00095885
C       -1.04769263      -1.13562370      -0.01610578       0.00003665      -0.00076645      -0.00059842
O       -1.36785794      -2.22466237      -0.36875912       0.00031368      -0.00148529       0.00128260
O       -1.39637810       0.00056133      -0.73772062      -0.00200636       0.00064720      -0.00036302
O       -1.36944077       2.22551598      -0.36634326       0.00127265       0.00058740       0.00049498
H        2.08078194      -1.02836779       1.24650939       0.00013208       0.00036178      -0.00028515
H        1.48929988      -2.48175697       0.30399097       0.00084676      -0.00044396       0.00127032
H        1.60266302      -1.21680259      -1.78207035      -0.00001756      -0.00152004       0.00102848
H        1.60296303       1.21557062      -1.78266747      -0.00017838       0.00219791       0.00029043
H        1.48985386       2.48159027       0.30290609       0.00070534      -0.00009739       0.00141212
H        2.08067094       1.02830693       1.24606494       0.00037153      -0.00001537      -0.00035702
H       -0.14007749       1.33743645       2.01003478      -0.00016709      -0.00048952      -0.00000075
H       -0.14030960      -1.33777264       2.00948824      -0.00059513       0.00012491      -0.00055978
