19
Properties=species:S:1:pos:R:3:forces:R:3 charge=0 spin=1 energy=-11513.694407668863 pbc="F F F"
C       -2.28644325      -0.64983690      -0.08531763      -0.00041662      -0.00024132       0.00085165
C       -1.96706278       0.40734789       0.73629119       0.00092330       0.00049375      -0.00063652
C       -1.08003414       1.40923437       0.32203098       0.00144106       0.00065407       0.00065120
C       -0.49392279       1.37132871      -0.91338372       0.00041343      -0.00033184       0.00028405
C        0.52562793      -0.71812680      -0.78305711       0.00012147      -0.00033088      -0.00011652
C       -0.43003298      -1.62012116      -0.36324153       0.00005766      -0.00016305       0.00026883
C        1.47514555      -0.19475034       0.20469077       0.00009303       0.00015556      -0.00081140
O        1.36623412      -0.28848581       1.40376906      -0.00109132       0.00093551      -0.00085656
O        2.52629715       0.44032896      -0.37140047       0.00071378      -0.00034575      -0.00017407
H       -2.33922522      -0.50648269      -1.15549562      -0.00080609      -0.00005870       0.00100057
H       -2.90694392      -1.45038969       0.29681014       0.00035482      -0.00148700      -0.00015168
H       -2.22961020       0.35743087       1.78633298      -0.00084921      -0.00075411      -0.00155200
H       -0.69534896       2.09408563       1.06782124       0.00017676       0.00156055       0.00159540
H        0.30456841       2.05609390      -1.16659116      -0.00003315       0.00023606      -0.00043158
H       -0.98343964       0.89535688      -1.74949788       0.00049362      -0.00036199       0.00006001
H        0.79981939      -0.63104995      -1.82468386      -0.00069599      -0.00063626      -0.00012188
H       -0.85461371      -2.30430391      -1.08569927       0.00048095       0.00053460      -0.00071831
H       -0.37871066      -1.96302914       0.66007445      -0.00095706      -0.00011177       0.00033434
H        3.08420769       0.74325919       0.35921344      -0.00042031       0.00025274       0.00052445
