19
Properties=species:S:1:pos:R:3:forces:R:3 charge=0 spin=1 energy=-11513.647956513396 pbc="F F F"
C       -1.81292473      -1.13215653      -0.52323213       0.00078481      -0.00087396      -0.00091862
C       -2.49790236      -0.03406916      -0.05404602       0.00106811      -0.00120425       0.00096251
C       -1.89152376       1.22756068       0.00422131      -0.00020903      -0.00087288       0.00053909
C       -0.61349156       1.41829843      -0.44716664      -0.00059785      -0.00000902      -0.00007882
C        0.50081875      -0.10602431       0.89056988       0.00120508      -0.00001421       0.00096899
C       -0.20263610      -1.29343917       0.85010653      -0.00110045       0.00118010      -0.00073701
C        1.72414664       0.10308723       0.10659632       0.00022088      -0.00105926      -0.00054066
O        2.55022032       0.95732124       0.31281636      -0.00067403      -0.00066614      -0.00067680
O        1.84247040      -0.76248963      -0.93614245       0.00013663       0.00046945      -0.00098068
H       -1.06804401      -1.02241091      -1.29938941      -0.00034457      -0.00071979      -0.00225253
H       -2.27490355      -2.10977145      -0.47137081      -0.00150502       0.00065912       0.00015907
H       -3.43587070      -0.18219402       0.46908246      -0.00091878       0.00103273       0.00065161
H       -2.36799166       2.00343059       0.59228894       0.00024385      -0.00123656      -0.00139617
H       -0.08938555       2.34571500      -0.25819982      -0.00009123       0.00059376       0.00102019
H       -0.22259781       0.81456513      -1.25342748       0.00132857      -0.00112259       0.00168331
H        0.39850848       0.56925101       1.72636035       0.00058611       0.00086971      -0.00011769
H        0.20510064      -2.12092685       0.28636186      -0.00170359       0.00071699       0.00029934
H       -0.82536136      -1.55236687       1.69431555       0.00094144       0.00084919       0.00022976
H        2.67129191      -0.52910843      -1.37800782       0.00062923       0.00140773       0.00118511
