19
Properties=species:S:1:pos:R:3:forces:R:3 charge=0 spin=1 energy=-11513.700714752966 pbc="F F F"
C       -1.84031764      -1.08343190      -0.56087422       0.00009514      -0.00025168       0.00049239
C       -2.49662364       0.01481791      -0.05269667      -0.00064459       0.00011330      -0.00051093
C       -1.86047317       1.26042996       0.04331346      -0.00051290      -0.00013239      -0.00090096
C       -0.58505940       1.43996877      -0.41535168      -0.00058419       0.00007175      -0.00062620
C        0.50394878      -0.19196700       0.86366299      -0.00058592      -0.00025589      -0.00033518
C       -0.26136089      -1.33823533       0.81042530       0.00025508      -0.00072928      -0.00036563
C        1.67601412      -0.09167216      -0.01116753      -0.00020339       0.00090703       0.00049317
O        1.88882100      -0.78259931      -0.98106816      -0.00034934       0.00096929       0.00026892
O        2.51758829       0.90307174       0.35628874       0.00104342       0.00005212       0.00043308
H       -1.09197306      -0.96947810      -1.33356428       0.00227617       0.00041083       0.00095900
H       -2.33060259      -2.04858439      -0.54333382      -0.00045414       0.00167747       0.00058549
H       -3.43512065      -0.12829939       0.47095457      -0.00082463       0.00197638       0.00003011
H       -2.31591881       2.02604749       0.66079370       0.00006078      -0.00110954      -0.00063830
H       -0.04402212       2.35203055      -0.19968448      -0.00033031      -0.00007701       0.00087191
H       -0.20606905       0.85040848      -1.23736966      -0.00095669      -0.00129247       0.00053138
H        0.45839166       0.47654406       1.70949317       0.00045640      -0.00005911      -0.00047587
H        0.11215369      -2.16538190       0.22123274       0.00070174      -0.00043958      -0.00042714
H       -0.88827055      -1.58707245       1.65415748       0.00034219      -0.00133484       0.00045669
H        3.24391904       0.88911797      -0.28361167       0.00021519      -0.00049642      -0.00084188
