22
Properties=species:S:1:pos:R:3:forces:R:3 charge=0 spin=1 energy=-12582.803811260694 pbc="F F F"
C       -2.74152778      -0.40237189       0.06325214       0.00050324       0.00010696      -0.00027596
C       -2.22251620       0.64240278       0.79420393      -0.00055120       0.00069856       0.00038047
C       -1.24151497       1.48693395       0.25930673      -0.00060828      -0.00012018       0.00020796
C       -0.75914865       1.29982936      -1.00762711       0.00011968       0.00011209       0.00051779
C       -0.02037980      -0.89356383      -0.81437032      -0.00025741      -0.00015934      -0.00000393
C       -1.05779428      -1.63230611      -0.28478202      -0.00002003      -0.00082003      -0.00089617
C        1.05889221      -0.45657001       0.08307475      -0.00054245       0.00039754       0.00070685
O        1.01465375      -0.48312002       1.28986553       0.00037335       0.00208819       0.00099294
O        2.12956949       0.00144992      -0.60238991      -0.00042511      -0.00137806       0.00021707
C        3.20591959       0.46504195       0.21529032      -0.00008340      -0.00044143      -0.00100334
H       -2.85843031      -0.30719879      -1.00723343       0.00005919      -0.00075638       0.00021568
H       -3.43213678      -1.08924011       0.53582880       0.00030288      -0.00010034      -0.00040042
H       -2.40873282       0.68353042       1.86075521       0.00066028       0.00126695       0.00084180
H       -0.71242653       2.14963581       0.93349723       0.00007481       0.00029850      -0.00075493
H        0.10365234       1.85192001      -1.35659147       0.00000617      -0.00049023       0.00067405
H       -1.37152498       0.85621228      -1.77809493      -0.00019159       0.00073151       0.00026175
H        0.19001861      -0.89530263      -1.87448281       0.00010911      -0.00023228      -0.00007943
H       -1.62142874      -2.28432557      -0.93860635      -0.00014015      -0.00003554      -0.00135064
H       -0.97977847      -1.93014004       0.75085027       0.00101869      -0.00106280      -0.00087953
H        3.58017725      -0.33778501       0.84861947       0.00006521       0.00099675       0.00116652
H        2.87875653       1.28734655       0.85061045       0.00015859      -0.00119974       0.00013512
H        3.97715052       0.79862601      -0.47271748      -0.00063145       0.00009932      -0.00067366
