22
Properties=species:S:1:pos:R:3:forces:R:3 charge=0 spin=1 energy=-12582.753618020917 pbc="F F F"
C        2.51786223      -0.01854172      -0.75811652       0.00040486       0.00024644      -0.00096167
C        1.95568500       1.14038652      -0.27221831      -0.00004194      -0.00042115       0.00050732
C        1.21528060       1.14649249       0.91601864      -0.00001052      -0.00094540       0.00035470
C        1.02106295      -0.00262447       1.63647869       0.00054027      -0.00072265       0.00004209
C        0.04290003      -1.32893754       0.03798991      -0.00039855       0.00027497      -0.00016505
C        0.82966859      -1.27432169      -1.09593887      -0.00007937       0.00111689       0.00039153
C       -1.21479893      -0.57314349       0.16427299      -0.00081835      -0.00067692       0.00073687
O       -2.06551363      -0.78747971       0.99432166       0.00004692      -0.00080926       0.00162397
O       -1.32006366       0.41258107      -0.75196237      -0.00049223      -0.00120226       0.00023936
C       -2.50123134       1.20707654      -0.63627178      -0.00011347      -0.00054395      -0.00003260
H        2.88699329      -0.76910099      -0.07345545      -0.00065559       0.00063774       0.00047419
H        3.00235461      -0.00940868      -1.72614785       0.00036149       0.00022166      -0.00035463
H        1.89996303       2.00913023      -0.91779351      -0.00080325      -0.00026835       0.00130253
H        0.61658579       2.01979716       1.14721071       0.00075798       0.00038784      -0.00207766
H        0.31686940      -0.02754589       2.45746189      -0.00053230       0.00056575      -0.00022132
H        1.75733798      -0.79234888       1.62840476       0.00036288      -0.00125774      -0.00007559
H        0.11150763      -2.16881908       0.71553050       0.00087368       0.00036548      -0.00038252
H        1.46284048      -2.12163271      -1.32439406      -0.00020230       0.00096641       0.00049579
H        0.48664365      -0.69296523      -1.93812722      -0.00112816       0.00058932       0.00063222
H       -2.54375436       1.68734799       0.34070401       0.00148442       0.00078346      -0.00100898
H       -3.39157004       0.59351762      -0.76257725       0.00077383       0.00010809      -0.00143455
H       -2.43500031       1.95149945      -1.42442456      -0.00033030       0.00058357      -0.00008592
