22
Properties=species:S:1:pos:R:3:forces:R:3 charge=0 spin=1 energy=-12582.814498056954 pbc="F F F"
C       -2.34072369      -0.89624134      -0.64982837       0.00021234       0.00018835      -0.00014174
C       -2.88349332       0.26047150      -0.13660173      -0.00090794       0.00009623      -0.00030776
C       -2.10315407       1.41107778       0.04024395      -0.00063177       0.00004274      -0.00009822
C       -0.79085756       1.44051433      -0.34384830      -0.00029282      -0.00019722       0.00117170
C        0.01823147      -0.35196659       0.91864174       0.00046525      -0.00008854      -0.00018464
C       -0.88152720      -1.38876573       0.78717078       0.00123224      -0.00045134      -0.00042810
C        1.23937330      -0.37428116       0.10113812      -0.00045412       0.00081209      -0.00087777
O        1.40232930      -1.05574071      -0.88552398      -0.00020535       0.00023934      -0.00026571
O        2.16936778       0.48878228       0.55675994      -0.00173967       0.00102306      -0.00117498
C        3.37201403       0.53703037      -0.21512440      -0.00033229      -0.00001319       0.00096284
H       -1.54227048      -0.85442862      -1.37842503      -0.00084605       0.00002158      -0.00165737
H       -2.94783232      -1.79163250      -0.69410221       0.00104635       0.00033141       0.00086380
H       -3.86049040       0.22124749       0.33180196      -0.00104060       0.00080693       0.00078374
H       -2.49292196       2.20818958       0.66288324       0.00029880       0.00006642      -0.00005831
H       -0.15367341       2.26997248      -0.06564061       0.00027251      -0.00067891      -0.00079979
H       -0.44489605       0.83537350      -1.16915930       0.00086185       0.00022438       0.00069525
H        0.01492961       0.29088640       1.78556122       0.00034196      -0.00013779       0.00058483
H       -0.58241933      -2.23843805       0.18774513      -0.00136884      -0.00137099      -0.00083439
H       -1.57835598      -1.58139908       1.58979875       0.00155883       0.00011303       0.00025032
H        3.16023643       0.85396213      -1.23550136       0.00011144      -0.00209432       0.00053291
H        3.84817216      -0.44166174      -0.24413410       0.00102791       0.00044530       0.00160258
H        4.01271969       1.25848869       0.28279157       0.00038993       0.00062138      -0.00061938
