22
Properties=species:S:1:pos:R:3:forces:R:3 charge=0 spin=1 energy=-12582.761610416686 pbc="F F F"
C       -1.97290393      -1.34199319      -0.39771981      -0.00005600       0.00003548       0.00053924
C       -2.80359958      -0.24783604      -0.30773927       0.00073372       0.00029746      -0.00010252
C       -2.30395462       1.05381969      -0.44533875       0.00067743       0.00041499      -0.00085723
C       -0.98230013       1.27730704      -0.72243105       0.00038307      -0.00078495      -0.00077776
C       -0.01138220       0.19952301       1.07856722       0.00088221      -0.00081183       0.00011617
C       -0.62219220      -1.03146763       1.21046679      -0.00070525      -0.00027889      -0.00034451
C        1.31471775       0.35882312       0.46074043       0.00064170       0.00022202       0.00034143
O        2.03085481       1.32022761       0.59798471      -0.00039252       0.00061257      -0.00004450
O        1.64883778      -0.69319369      -0.32312195       0.00046137       0.00054639      -0.00025237
C        2.92327881      -0.57993806      -0.96038109       0.00061150      -0.00104421       0.00013232
H       -1.11128770      -1.32386304      -1.05109907      -0.00110344       0.00071789      -0.00075491
H       -2.36975322      -2.32893990      -0.19664389      -0.00013707       0.00048612       0.00024703
H       -3.80678566      -0.37834633       0.08223708       0.00137275       0.00049235       0.00070945
H       -2.92801198       1.88301545      -0.13245067      -0.00029593      -0.00142939       0.00122931
H       -0.56351139       2.27364269      -0.67224102      -0.00192125       0.00011244       0.00081705
H       -0.41603246       0.55885620      -1.29737584       0.00173893      -0.00078995      -0.00079821
H       -0.29740142       1.02702010       1.71029169      -0.00014198      -0.00039397      -0.00094810
H       -0.07306871      -1.91817237       0.92627622      -0.00094353      -0.00002793       0.00031208
H       -1.36370942      -1.15786346       1.98622659      -0.00068375       0.00076940       0.00017450
H        3.71533631      -0.50172224      -0.21780922      -0.00052561       0.00015821       0.00068752
H        2.95483557       0.30061940      -1.60031674      -0.00060350       0.00018051       0.00003031
H        3.04027960      -1.48495737      -1.54927335       0.00000716       0.00051530      -0.00045623
