20
Properties=species:S:1:pos:R:3:forces:R:3 charge=0 spin=1 energy=-12550.421260288145 pbc="F F F"
H       -2.50738971      -1.78003589       0.25164865      -0.00052781      -0.00012441      -0.00008796
C       -2.09868082      -0.78108449       0.34295739      -0.00023874       0.00094503       0.00040766
C       -1.97252653       0.00269872      -0.78519346       0.00035163      -0.00066881      -0.00017871
H       -2.23869896      -0.32404657       1.31259707       0.00043463       0.00093903      -0.00025440
C       -0.05632330      -1.12525281       0.90060642      -0.00022051      -0.00042573       0.00037664
C       -1.32734091       1.24189261      -0.73817567       0.00025098      -0.00102506      -0.00081267
H       -2.17362343      -0.43509956      -1.75631214      -0.00101400      -0.00032694      -0.00023403
C        0.55316917       0.09829032       1.09839306      -0.00030953       0.00004861      -0.00007773
H       -0.39272820      -1.76016076       1.70622345      -0.00076602      -0.00104144      -0.00021227
C       -0.83933656       1.73754735       0.44540071       0.00073287       0.00024053       0.00024487
H       -1.01967616       1.70242394      -1.66940987      -0.00001121       0.00127526       0.00058894
C        1.49845549       0.33783636      -0.01104541       0.00099363       0.00010221      -0.00012518
H        0.67507866       0.60476280       2.04197696      -0.00032418      -0.00052218       0.00008146
H       -0.18926194       2.60186913       0.45147137      -0.00120257       0.00019688       0.00087659
H       -1.33710355       1.51764927       1.37878265       0.00061981       0.00134649       0.00011861
O        2.25679820       1.24507567      -0.19363147      -0.00156586       0.00074725      -0.00140899
O        1.37070916      -0.69182840      -0.89841782       0.00168278      -0.00090497       0.00094914
C        0.56911986      -1.72742976      -0.33187536       0.00012111       0.00001456       0.00047524
H       -0.13948103      -2.06284567      -1.08541934       0.00066462      -0.00070666       0.00023158
H        1.21979956      -2.56390025      -0.06248119       0.00032825      -0.00010957      -0.00095888
