20
Properties=species:S:1:pos:R:3:forces:R:3 charge=0 spin=1 energy=-12550.384000911712 pbc="F F F"
H       -0.73193731       2.53161407      -0.23133946      -0.00040518      -0.00070128      -0.00114315
C       -1.03260018       1.51098703      -0.42537902       0.00033658      -0.00108438       0.00079936
C       -2.23210629       1.03045463       0.03495309       0.00018978      -0.00092787       0.00133259
H       -0.52906405       1.03873844      -1.25688614       0.00087362       0.00084222      -0.00000571
C        0.07174112      -1.01370300       0.78261034      -0.00025700       0.00011228      -0.00032302
C       -2.53318571      -0.33374784      -0.02569283      -0.00061508      -0.00039110       0.00097809
H       -2.86253393       1.67259564       0.63903495       0.00032375       0.00006468       0.00015558
C        0.36745788       0.33107244       0.89307567       0.00052225       0.00002195       0.00020952
H       -0.40935124      -1.58397613       1.56117543      -0.00054499      -0.00095935      -0.00130629
C       -1.61946081      -1.23451244      -0.52391899      -0.00041811       0.00031718      -0.00089568
H       -3.39901708      -0.69917109       0.51440723      -0.00132354       0.00009074       0.00085858
C        1.56323797       0.61385285       0.07123026       0.00084533       0.00009834       0.00042000
H        0.09782673       0.97943020       1.70818221       0.00012705       0.00059426      -0.00050137
H       -1.83107837      -2.29555860      -0.47699189      -0.00103995       0.00076876      -0.00034327
H       -0.95974884      -0.93806019      -1.32891072      -0.00078073      -0.00065628      -0.00189698
O        2.16286421       1.63665283      -0.08572600      -0.00007416       0.00008595      -0.00084586
O        1.91064410      -0.53913652      -0.58043863       0.00179377      -0.00026203       0.00139706
C        1.16698307      -1.63472597      -0.04877525       0.00032908       0.00034867       0.00005139
H        0.82082717      -2.24905931      -0.87887856      -0.00000590       0.00023058       0.00027929
H        1.82810958      -2.24061304       0.57625530       0.00012343       0.00140667       0.00077981
