23
Properties=species:S:1:pos:R:3:forces:R:3 charge=0 spin=1 energy=-13619.980214317962 pbc="F F F"
C        2.50508029       0.89608831       0.18188114      -0.00009819      -0.00015088       0.00033261
C        2.66143610      -0.46937394       0.08101815      -0.00058315       0.00002051       0.00084186
C        1.77227579      -1.23808016      -0.68242084      -0.00099191       0.00020644       0.00064621
C        0.71611110      -0.66077502      -1.33238294       0.00021050       0.00018929      -0.00122982
C       -0.30753950       0.29341512       0.58157374      -0.00087772       0.00038887       0.00025904
C        0.64094894       1.14714530       1.10041293       0.00034075      -0.00060484      -0.00041648
C       -1.34984212       0.77004860      -0.34736837      -0.00128248       0.00016459       0.00038116
O       -1.39094572       1.79478305      -0.96952752      -0.00088236       0.00051209       0.00037766
O       -2.33673254      -0.16285683      -0.42002246      -0.00134387      -0.00024028      -0.00085509
C       -1.98839801      -1.34000464       0.32593666      -0.00035293       0.00054922       0.00057288
H        2.12640021       1.45451488      -0.66279659       0.00056212       0.00013327      -0.00083368
H        3.16100843       1.45675828       0.83548100       0.00007422       0.00160000      -0.00127867
H        3.35434502      -0.97695501       0.74234401      -0.00094060      -0.00079089      -0.00073047
H        1.82412697      -2.31841758      -0.60498335      -0.00006313      -0.00084944       0.00168407
H       -0.02382680      -1.27821238      -1.82648968       0.00078427      -0.00054923       0.00021559
H        0.74239669       0.37068056      -1.64974198       0.00098592       0.00096870       0.00061900
H        0.57895082       2.18864208       0.81043989       0.00115262      -0.00174866       0.00101820
H        1.03243708       0.94251727       2.08753833       0.00033445      -0.00107742       0.00111459
C       -0.81251199      -0.96687749       1.22907236      -0.00012033       0.00073834      -0.00132437
H       -1.15179650      -0.75590389       2.24582028       0.00030324       0.00162777      -0.00161888
H       -0.06217158      -1.75510180       1.28252647      -0.00081221      -0.00025077      -0.00085466
H       -2.87400301      -1.65206222       0.87438422       0.00175041      -0.00110040       0.00103057
H       -1.72133465      -2.12213149      -0.38663446       0.00185029       0.00026383       0.00004875
