28
#Cluster:3
C          -2.03840000      0.48890000      1.37050000
C           0.65370000      1.93880000     -1.16520000
C           1.05010000      1.34370000     -0.05130000
C           1.06660000     -0.14560000      0.11670000
C           2.41458364     -0.63720389      0.64864701
N           3.46668766     -0.35531916     -0.30731343
C           4.77504989     -0.74588661      0.17552032
C          -3.36791607      0.62643177      1.01232326
C          -3.88786581     -0.11171767     -0.03667462
C          -3.07643917     -1.00350727     -0.71808898
C          -1.75169830     -1.15775714     -0.35561616
C          -1.22990000     -0.41450000      0.69890000
O           0.08300000     -0.54750000      1.09130000
H          -1.62038079      1.06074190      2.18465407
H           0.35576067      1.37396382     -2.03239693
H           0.62345679      3.01159758     -1.25717570
H           1.32981975      1.91343051      0.82455214
H           0.86233919     -0.62595639     -0.84872386
H           2.36353078     -1.72009045      0.79345939
H           2.58978963     -0.17537094      1.63621383
H           3.46212703      0.63843461     -0.52422888
H           4.79032274     -1.82904748      0.29896774
H           5.04235121     -0.28652902      1.13959478
H           5.52290617     -0.46886255     -0.56479581
H          -3.99648226      1.32410370      1.54597289
H          -4.92182024      0.00717408     -0.32439496
H          -3.47696082     -1.58189550     -1.53802626
H          -1.11969744     -1.85798767     -0.88199800