28
#Cluster:2
C          -1.70030000      0.75260000      0.76590000
C          -0.52010000      1.29880000     -0.09820000
C           0.81700000      0.95690000      0.47520000
C           1.73740000      0.26340000     -0.17750000
C           3.04215542     -0.17061632      0.42347204
N           3.06836931     -1.59020038      0.74909631
C           3.09385993     -2.47237647     -0.39969219
C          -2.98407044      1.21819495      0.18769391
C          -3.82387262      0.39419608     -0.44949601
C          -3.53380773     -1.00798504     -0.55225749
C          -2.44965810     -1.55075321      0.03119310
C          -1.51456486     -0.75507543      0.81355934
O          -0.59423395     -1.25067650      1.43770683
H          -1.56442773      1.15422153      1.77624761
H          -0.61176482      0.89703799     -1.10965156
H          -0.62899265      2.38678412     -0.15100984
H           1.00454831      1.30335996      1.48221005
H           1.53515164     -0.09034408     -1.18044331
H           3.22288036      0.37703375      1.35254264
H           3.86884478      0.02746993     -0.26666186
H           2.25966253     -1.80575019      1.32677047
H           3.95345392     -2.21347983     -1.01986576
H           2.19036483     -2.43509517     -1.02374007
H           3.21951938     -3.49446909     -0.04433538
H          -3.19340061      2.27610459      0.26785786
H          -4.73945635      0.76032827     -0.88949717
H          -4.22500315     -1.62871300     -1.10573049
H          -2.24988523     -2.61129545     -0.01857794