28
#Cluster:5
C          -1.70030000      0.75260000      0.76590000
C          -0.52010000      1.29880000     -0.09820000
C           0.81700000      0.95690000      0.47520000
C           1.73740000      0.26340000     -0.17750000
C           3.09398337     -0.08011341      0.35407290
N           3.38147108     -1.47768388      0.07469155
C           2.60148976     -2.38174898      0.89880285
C          -2.97469542      1.26077546      0.20016810
C          -3.78749469      0.48949274     -0.53052752
C          -3.48312737     -0.89852126     -0.74028228
C          -2.42748102     -1.48730321     -0.15013487
C          -1.54353431     -0.75798972      0.74979592
O          -0.68600890     -1.30684160      1.41536360
H          -1.54961181      1.11757314      1.78691785
H          -0.61126611      0.89979715     -1.11014398
H          -0.62682771      2.38727360     -0.14710428
H           1.00518682      1.31195910      1.47938296
H           1.54306426     -0.11006172     -1.17348817
H           3.14729080      0.16351807      1.42969280
H           3.84251492      0.52458330     -0.17143177
H           4.37099121     -1.65943304      0.21686919
H           1.54414149     -2.15631392      0.76815448
H           2.83300066     -2.29980700      1.97101411
H           2.79157761     -3.40383298      0.57484238
H          -3.19229393      2.30774584      0.36045184
H          -4.69174815      0.88615969     -0.96751783
H          -4.14334905     -1.47054922     -1.37770827
H          -2.22316575     -2.54094698     -0.27215579