24
#Cluster:5
O          -3.01220000     -1.89810000     -0.89560000
N          -2.24000000     -1.84520000      0.10670000
C          -1.33940000     -1.04800000      0.32900000
O          -1.49950000      0.15260000     -1.13000000
C          -2.13083980      1.39168746     -0.85563158
C          -1.97983377      2.32754156     -2.03101397
O          -2.49414782      3.40253846     -2.11758458
S          -0.26140000     -0.49670000      1.57210000
O          -0.62679434      0.90163972      1.81102661
C           1.19824498     -0.44815041      0.48081953
C           1.69971681      0.77249449      0.07650432
C           2.85586211      0.80646460     -0.68452161
C           3.49902343     -0.37526642     -1.01418923
C           2.98840299     -1.59462225     -0.59496944
C           1.82971089     -1.63619050      0.16083631
H          -2.18160000     -0.50790000     -1.46450000
H          -3.18909169      1.27173497     -0.60211981
H          -1.63210578      1.83978153      0.01512819
H          -1.31610567      1.92095763     -2.81848294
H           1.18746293      1.67687734      0.36903597
H           3.25755946      1.75415788     -1.00930003
H           4.40801128     -0.34709429     -1.59576552
H           3.49726032     -2.51163711     -0.84972996
H           1.41824314     -2.57513091      0.49970256