24
#Cluster:6
O          -3.01220000     -1.89810000     -0.89560000
N          -2.24000000     -1.84520000      0.10670000
C          -1.33940000     -1.04800000      0.32900000
O          -1.49950000      0.15260000     -1.13000000
C          -2.14107898      1.38477352     -0.85105829
C          -2.10364597      2.28518512     -2.06288693
O          -2.62411972      3.35846727     -2.13122562
S          -0.26140000     -0.49670000      1.57210000
O          -0.61730059      0.90527834      1.80150747
C           1.20130682     -0.46589844      0.48364443
C           1.69681487      0.74646625      0.04819715
C           2.85253341      0.76671332     -0.71396518
C           3.50183972     -0.41973346     -1.01324754
C           2.99790162     -1.63041342     -0.56209068
C           1.83917504     -1.65838889      0.19432681
H          -2.18160000     -0.50790000     -1.46450000
H          -3.17617709      1.24679167     -0.52035551
H          -1.59680382      1.86962785     -0.02967228
H          -1.52092762      1.85341192     -2.89967344
H           1.18077954      1.65568929      0.31801329
H           3.24897729      1.70768125     -1.06377951
H           4.41030015     -0.40188334     -1.59607131
H           3.51195498     -2.55097036     -0.79245241
H           1.43279198     -2.59032071      0.55775999