15
Properties=species:S:1:pos:R:3:forces:R:3 /mnt/e/work/rmlp/database/CAMD/log/success_log/ts_1_1_NO2-A-11-b_opt.log=T energy=-11343.498665625159 pbc="F F F"
O       -3.42771403      -0.09816680      -0.00037655       0.00840259       0.00493642       0.00269787
N       -2.31604327       0.53813122       0.00026426      -0.00876295      -0.00617077      -0.00240361
N       -1.45105498      -0.38445586       0.00040129       0.00294146       0.00204323       0.00053599
C       -0.05794158      -0.15596687       0.00016171      -0.00317227       0.00029343       0.00118549
C        0.48305056       1.12640118       0.00013954      -0.00932919      -0.00619667      -0.00009535
C        1.85913775       1.27465398      -0.00010041       0.00369969      -0.00292169       0.00000749
C        2.69167707       0.16212375      -0.00030024       0.00116949       0.00553123       0.00003716
C        2.14057593      -1.11019585      -0.00025378      -0.00244262      -0.00558345      -0.00008286
C        0.76423713      -1.27376969      -0.00001754       0.00925720       0.00466584       0.00002276
H       -2.53283840      -1.10321210       0.00014752      -0.00346458      -0.00073166      -0.00184908
H       -0.16995691       1.98756861       0.00030981       0.00504015       0.00412126      -0.00002218
H        2.28599755       2.26903716      -0.00011791      -0.00111461       0.00078859      -0.00001577
H        3.76600787       0.28898718      -0.00047295      -0.00010264       0.00039890      -0.00000937
H        2.78244034      -1.98119193      -0.00039911      -0.00075097      -0.00064150       0.00000001
H        0.31869497      -2.25972396       0.00003434      -0.00137098      -0.00053308      -0.00000856
