22
#Cluster:1
C          -2.59971004      0.80477173      1.07722870
O          -1.87285398      1.50626885      0.09578418
C          -1.42710000      0.72050000     -0.97560000
C          -0.29580000     -0.23320000     -0.60280000
N          -0.21560000     -1.29800000     -1.48480000
O           1.02041436     -1.80885869     -1.63804489
C           1.00610000      0.46390000     -0.25660000
O           1.49079867      1.31707915     -0.94920064
O           1.53564946      0.01420941      0.87503046
C           2.78615470      0.58340791      1.24455389
O          -0.99670000     -2.35040000      0.09050000
H          -1.96332036      0.10780300      1.63415436
H          -2.99081968      1.55605104      1.76053766
H          -3.42871244      0.24528612      0.63031239
H          -2.24482060      0.12657765     -1.40596831
H          -1.05410266      1.43186252     -1.71820850
H           0.92237524     -2.57869620     -2.22335338
H           3.53859519      0.35835748      0.48631558
H           2.69246463      1.66712606      1.33751266
H           3.05621088      0.13605677      2.19700322
H          -0.67270000     -0.97180000      0.29670000
H          -1.32119840     -3.18927621      0.44398775