39
#Cluster:7
C          -5.76201553     -1.84246110      1.55523896
C          -5.60328491     -1.10177634      0.22587187
N          -4.50848634     -0.16122959      0.23161077
C          -3.18497169     -0.52082643      0.20175194
C          -2.21903121      0.42407126      0.58225473
C          -0.87795157      0.13588352      0.50857119
C          -0.43150000     -1.10260000      0.02920000
C          -1.39885857     -2.04783262     -0.32778411
C           1.19850000     -1.77520000      0.69210000
O           1.48603151     -1.36800626      1.80121372
C          -2.74575722     -1.77219585     -0.24706325
N           1.99260000     -1.20020000     -0.58850000
C           2.93690345     -2.15272965     -1.14962537
C           2.56101591      0.09328304     -0.37771703
C           3.49062783      0.34147178      0.62305461
C           3.98818481      1.62233910      0.79159550
C           3.57745341      2.65049867     -0.03921584
C           2.65088997      2.40248100     -1.03833739
C           2.13794350      1.12964873     -1.20266527
H          -6.58814318     -2.54613111      1.49883639
H          -4.85116276     -2.38744686      1.79221766
H          -5.95982492     -1.13771473      2.36031122
H          -5.44816700     -1.81720613     -0.58460064
H          -6.51542501     -0.54118432      0.00285983
H          -4.69206508      0.68797431      0.74652343
H          -2.54919719      1.38944934      0.94233362
H          -0.14951400      0.86632451      0.83145646
H          -1.08705337     -3.02547899     -0.67356286
H           1.04379793     -2.83865484      0.45779518
H          -3.45818454     -2.53127837     -0.53060592
H           0.69440000     -1.03790000     -0.72680000
H           3.74333820     -2.37946172     -0.44527564
H           2.41196854     -3.07709824     -1.39053359
H           3.37325201     -1.74801461     -2.06414185
H           3.79819480     -0.45617833      1.27955609
H           4.70314704      1.81817974      1.57705009
H           3.97537654      3.64600725      0.09216207
H           2.32380399      3.20135137     -1.68789191
H           1.40764409      0.92883706     -1.97435336