24
Properties=species:S:1:pos:R:3:forces:R:3 #Cluster:2=T energy=-29988.328599495733 pbc="F F F"
O       -2.92698750      -1.93785037      -0.95105408      -0.00329430       0.00112494      -0.00916800
N       -2.17896367      -1.88646447       0.06886984      -0.00328971      -0.00940891       0.02155548
C       -1.32791976      -1.05976455       0.34900744       0.00879880       0.01840618      -0.02254398
O       -1.49005126       0.16955130      -1.08900668       0.00951850      -0.01205254      -0.01303912
C       -2.19173600       1.37665669      -0.75915842      -0.00775485      -0.01341321       0.00155222
C       -1.18718981       2.49169244      -0.59815852      -0.00469151       0.01389626       0.00894902
O       -1.51483748       3.61982355      -0.36608123       0.00370367       0.00063245      -0.00464033
S       -0.23085270      -0.51360115       1.57074234       0.00237809      -0.00929369       0.01769476
O       -0.56030211       0.88917137       1.89002177       0.00158339       0.00087471       0.00470741
C        1.22577357      -0.47138123       0.52246599       0.00021627       0.02284724       0.00178408
C        1.64362240      -1.61362999      -0.14230335       0.00000376      -0.00285280      -0.00010678
C        2.81240363      -1.56241690      -0.88288696       0.00267021       0.00004744       0.00008831
C        3.54821328      -0.38412577      -0.93974433      -0.00391799      -0.00147675       0.00166530
C        3.12031267       0.74399536      -0.25697864      -0.00124856       0.00109392      -0.00157339
C        1.94813833       0.70664342       0.48777838      -0.00119398      -0.01091056       0.00063009
H       -2.15841247      -0.49935802      -1.43889415      -0.00039948       0.00820848      -0.00589659
H       -2.87690692       1.63233775      -1.56994495      -0.00558211      -0.00041772       0.00239217
H       -2.76119275       1.26650158       0.16569252       0.00156622       0.00386923       0.00141017
H       -0.13130665       2.19341835      -0.73574808       0.00188843      -0.00734730      -0.00008035
H        1.05844591      -2.52430093      -0.09133128       0.00108912      -0.00063321      -0.00242400
H        3.14996421      -2.44122467      -1.41565738       0.00053420       0.00119367      -0.00117534
H        4.46159799      -0.34855834      -1.51869274      -0.00042911      -0.00297846       0.00012425
H        3.69805215       1.65767799      -0.30055302       0.00193439      -0.00207611       0.00038748
H        1.59187162       1.57028371       1.03406327      -0.00408357       0.00066683      -0.00229291
