27
energy = -18427.45423
 C                  2.04963700    0.39102300   -0.08752800
 O                  1.48842600    1.17683300   -1.10632700
 C                  1.19986700    2.46908300   -0.71866700
 F                  0.13906000    2.49246700    0.16012600
 C                  1.74130200   -0.98260400   -0.11718500
 C                  2.64443800   -1.92889900    0.58639400
 C                  0.62982000   -1.50016400   -0.96415400
 C                 -0.70038100   -0.94830700   -0.49823800
 C                 -1.81710000   -0.84954000   -1.31450800
 C                 -3.01137100   -0.36795500   -0.80355500
 C                 -3.07240600    0.03133800    0.52933400
 C                 -1.95998100   -0.04389300    1.34630600
 C                 -0.74882000   -0.53193700    0.84154700
 O                  0.37025200   -0.58891400    1.55293600
 H                  3.06146600    0.67890600    0.19797100
 H                  1.28280800    0.30352700    0.94136300
 H                  2.04665000    2.93598100   -0.20460900
 H                  0.91344500    3.01465900   -1.61544300
 H                  3.24769300   -1.42608800    1.33988100
 H                  3.31843800   -2.35669500   -0.16421000
 H                  2.08038600   -2.73552100    1.04622700
 H                  0.63496700   -2.59201300   -0.94599500
 H                  0.81592700   -1.16621500   -1.98960800
 H                 -1.75464300   -1.15843500   -2.35225400
 H                 -3.88816900   -0.30620500   -1.43418800
 H                 -4.00267000    0.41323700    0.93186200
 H                 -1.99417800    0.28503600    2.37672300
