27
energy = -18427.47081
 C                  2.07584000    0.32420100   -0.18120500
 O                  1.41939600    1.08902800   -1.15271500
 C                  0.79677200    2.22503200   -0.67092500
 F                  1.74339600    3.16649500   -0.30333300
 C                  1.79619900   -1.05768700   -0.18254200
 C                  2.74108200   -1.97853300    0.49291200
 C                  0.62381200   -1.59333800   -0.92213300
 C                 -0.66246800   -0.96546700   -0.42922300
 C                 -1.79004100   -0.82545200   -1.22551800
 C                 -2.94808600   -0.26880500   -0.70742700
 C                 -2.96145300    0.16586000    0.61596300
 C                 -1.83828500    0.05128100    1.41379700
 C                 -0.65863800   -0.51556400    0.90509400
 O                  0.46253500   -0.59748600    1.59787900
 H                  3.09456600    0.63889600    0.03468600
 H                  1.41439800    0.25089600    0.88962400
 H                  0.20802600    2.63728600   -1.48737100
 H                  0.19045100    2.01376700    0.21351600
 H                  3.41232700   -1.44926300    1.16619100
 H                  3.34341900   -2.45340500   -0.29013200
 H                  2.20731900   -2.75465100    1.03453900
 H                  0.59822300   -2.68123700   -0.83502700
 H                  0.76241600   -1.32918300   -1.97602200
 H                 -1.76347800   -1.16085100   -2.25656200
 H                 -3.83228700   -0.17735700   -1.32369800
 H                 -3.86244000    0.60517100    1.02657200
 H                 -1.83754100    0.40087200    2.43834000
