25
###
 C                 -3.12066600    0.38891700    1.52387200
 C                 -3.35542000   -0.02080000    0.20328600
 C                 -4.42480100    0.61221200   -0.60246300
 C                 -2.55394500   -1.10712900   -0.42848700
 C                 -1.07154900   -0.93701500   -0.20921100
 C                 -0.21020100   -2.00577100   -0.08230300
 C                  1.15422300   -1.77877900    0.03744200
 Cl                 2.23924500   -3.13293300    0.17060200
 C                  1.65040200   -0.49336100    0.05090300
 C                  0.79148200    0.60038500   -0.03554000
 C                  1.29617600    1.98209200    0.07845700
 O                  0.70355500    2.94566400    0.41597500
 Cl                 3.05111700    2.16793500   -0.36868300
 C                 -0.60863800    0.40805500   -0.18349200
 O                 -1.48345100    1.35696900   -0.26980100
 H                 -2.32237800    1.15029300    0.97494200
 H                 -2.50795000   -0.24985000    2.15234400
 H                 -3.88614400    0.97704100    2.01495500
 H                 -5.17329700   -0.15853500   -0.81740500
 H                 -4.90404900    1.43841300   -0.08416100
 H                 -4.02110900    0.94912600   -1.55572900
 H                 -2.88803500   -2.04527200    0.02987700
 H                 -2.78867500   -1.15852800   -1.49382000
 H                 -0.58334700   -3.02280300   -0.08948400
 H                  2.71370600   -0.33196700    0.14806400
