39
Properties=species:S:1:pos:R:3:forces:R:3 #Cluster:1=T energy=-21941.032365861283 pbc="F F F"
C       -5.08577902       0.62285116       2.41523516      -0.00108553      -0.00397104       0.01452714
C       -5.10354726       0.98454585       0.93437602      -0.00658293       0.00758659      -0.01515015
N       -4.53012780      -0.02902814       0.06831995       0.00451838       0.00433712      -0.00176642
C       -3.19004107      -0.35257937       0.08899109      -0.00302918      -0.00138531       0.00313080
C       -2.21898084       0.50949213       0.62060457      -0.00407050      -0.00905971      -0.00604616
C       -0.88575602       0.15232705       0.59017487       0.01411210       0.00168361       0.00915278
C       -0.45189463      -1.04935471       0.02737929      -0.02021439       0.02055270      -0.00363040
C       -1.43300751      -1.90624865      -0.48137206       0.00675601      -0.01122130      -0.00831637
C        1.15381473      -1.77039679       0.74476947       0.00810203       0.00165079       0.00928669
O        1.43955151      -1.38227833       1.86039913      -0.00491341      -0.00295030      -0.00310706
C       -2.77008897      -1.57315806      -0.46132938      -0.00051449       0.01000431       0.00340476
N        1.99582104      -1.21780697      -0.51616969      -0.00489255       0.01694822      -0.00475063
C        2.82082454      -2.24300836      -1.14985041       0.00025688       0.00251156       0.00065580
C        2.68403175       0.01122759      -0.23937571       0.00490308      -0.01084891       0.00609121
C        3.69510029       0.06759564       0.71280294      -0.00156661       0.00152041       0.00074098
C        4.33743353       1.27064125       0.95828774       0.00080847       0.00077967      -0.00089238
C        3.97045611       2.41694153       0.26601468       0.00041859       0.00028262       0.00135178
C        2.95438713       2.35955623      -0.67564349       0.00001331      -0.00257297       0.00085280
C        2.31120454       1.15611742      -0.92854953      -0.00238669       0.00159536      -0.00465360
H       -5.52427909       1.42316123       3.01344126      -0.00052421       0.00124820      -0.00279799
H       -5.65917654      -0.28825418       2.59434305      -0.00015694       0.00037453      -0.00250655
H       -4.06758057       0.45207915       2.76552774       0.00075683       0.00082327      -0.00397476
H       -6.12944739       1.14709136       0.60021141      -0.00065749      -0.00435127       0.00282929
H       -4.58253173       1.92853465       0.76360394       0.00528620      -0.00272161       0.00495349
H       -5.13922834      -0.80382980      -0.13754875      -0.00079964      -0.00186374       0.00381174
H       -2.51173575       1.45007781       1.06719242       0.00159283       0.00078634       0.00065243
H       -0.15135713       0.81141592       1.04228817      -0.00073308       0.00019136      -0.00056563
H       -1.14225371      -2.86428297      -0.90490450      -0.00022617       0.00138462       0.00007667
H        0.94649507      -2.82048023       0.48008432       0.00395119      -0.00093123       0.00276602
H       -3.51302362      -2.25161577      -0.86752581       0.00045666      -0.00083951      -0.00070073
H        0.71936412      -1.00870577      -0.68637861       0.00083106      -0.02342740      -0.00324165
H        3.60642427      -2.59314554      -0.47380757       0.00041623      -0.00095234      -0.00157128
H        2.19355805      -3.08913034      -1.42858050      -0.00126229       0.00042764       0.00036504
H        3.28450353      -1.84033705      -2.04927706       0.00013658      -0.00044013      -0.00021155
H        3.95439276      -0.81896990       1.27393578       0.00055443       0.00040589      -0.00014995
H        5.12210627       1.31549832       1.70256951      -0.00030116       0.00012671      -0.00020381
H        4.47525596       3.35378331       0.46377758      -0.00073878       0.00021042      -0.00064941
H        2.66053176       3.24984505      -1.21622263       0.00042341       0.00011448       0.00005346
H        1.51713344       1.09703763      -1.66326284       0.00036180       0.00199039       0.00018364
