39
Properties=species:S:1:pos:R:3:forces:R:3 #Cluster:7=T energy=-21941.033173409854 pbc="F F F"
C       -5.70355474      -1.99779234       1.44729194      -0.00260590      -0.00644501       0.00487859
C       -5.63189380      -1.13088026       0.19501233      -0.00302241       0.00462356      -0.00218266
N       -4.57158209      -0.14086726       0.21842946      -0.00689294       0.00788469      -0.00420981
C       -3.23553642      -0.47847649       0.19100382       0.00635203      -0.00080709       0.00245543
C       -2.28048302       0.46552126       0.60824719      -0.00423339       0.00036007      -0.00232524
C       -0.93877257       0.17064811       0.56464007       0.00052803      -0.00688307       0.00145410
C       -0.47305965      -1.06288638       0.09111256      -0.01413931      -0.00178401      -0.01247367
C       -1.43020375      -1.99696281      -0.30190781       0.00512979       0.00436110       0.00083358
C        1.18447820      -1.64721258       0.81038359       0.00940711       0.01421596       0.00481179
O        1.48115428      -1.15399734       1.88098129      -0.00196181      -0.00278932      -0.00178809
C       -2.78681413      -1.72441207      -0.26326492      -0.00101901      -0.00373705      -0.00040434
N        1.96102991      -1.16301681      -0.51871059      -0.00468248      -0.01888428      -0.01205958
C        2.83150860      -2.19187967      -1.08202603      -0.00111885      -0.00271185      -0.00640440
C        2.58121905       0.12307064      -0.37285989       0.00057563       0.01183642       0.00153691
C        3.60631690       0.32514803       0.54396145      -0.00115595      -0.00456601      -0.00047699
C        4.18077131       1.58066550       0.66254537      -0.00063365       0.00018666       0.00046899
C        3.73237728       2.63529885      -0.12129453       0.00118660      -0.00044456      -0.00091523
C        2.70310147       2.43289547      -1.02804060      -0.00030075       0.00013525       0.00035944
C        2.12760863       1.17649504      -1.15402567      -0.00024848      -0.00453766       0.00054864
H       -6.51490696      -2.72315647       1.36804002       0.00076418      -0.00073101       0.00166328
H       -4.77109401      -2.54084458       1.60294161       0.00078113       0.00162620      -0.00448767
H       -5.88321424      -1.38129696       2.32954186      -0.00033129       0.00017523      -0.00053523
H       -5.51463819      -1.75157915      -0.69547595       0.00180602      -0.00263340       0.00306261
H       -6.57057220      -0.59129950       0.06024581       0.00183543       0.00063674      -0.00186315
H       -4.77706761       0.68766756       0.75223697       0.00230975      -0.00109067       0.00316570
H       -2.62074105       1.42668711       0.97958373       0.00076979      -0.00011059      -0.00021867
H       -0.22018600       0.89637110       0.93117934       0.00070972      -0.00081824       0.00135880
H       -1.11061226      -2.97538749      -0.65175391      -0.00151506      -0.00039740      -0.00050431
H        1.02555934      -2.72474965       0.63966108      -0.00180487      -0.00067386       0.00097967
H       -3.49489233      -2.47694194      -0.58327713       0.00169581       0.00026651      -0.00003783
H        0.66895737      -1.04220032      -0.66922062       0.01398435       0.00771031       0.01994057
H        3.65567637      -2.43061457      -0.40342822      -0.00264787       0.00269888       0.00314350
H        2.25049575      -3.09592246      -1.26169047       0.00078363       0.00022061      -0.00019017
H        3.24485133      -1.84814997      -2.02923247      -0.00055951       0.00026118       0.00024810
H        3.92908108      -0.48972258       1.17631804       0.00060582       0.00221026       0.00082713
H        4.97608213       1.73895161       1.37954992       0.00008234      -0.00042695      -0.00031558
H        4.18431831       3.61385569      -0.02245241      -0.00067456       0.00018770      -0.00017867
H        2.34620604       3.25117831      -1.63980421      -0.00002684      -0.00013420       0.00026084
H        1.32351108       1.00478995      -1.85955071       0.00026748       0.00100884      -0.00042644
