22
Energy = -12582.7877768256 eV
C       -1.92751300      -1.34656700      -0.41121200
C       -2.78102400      -0.26960100      -0.32833600
C       -2.31520200       1.04633400      -0.45712900
C       -0.99949700       1.31161500      -0.72040000
C       -0.00683700       0.22088600       1.09618800
C       -0.62513100      -1.00762800       1.23126500
C        1.31841500       0.35865700       0.47461700
O        2.06762400       1.29188100       0.62647900
O        1.61312800      -0.68590400      -0.33808000
C        2.89107100      -0.60500800      -0.97415700
H       -1.05259600      -1.31025300      -1.04628200
H       -2.30947800      -2.34202400      -0.22190100
H       -3.78287300      -0.42513000       0.05590400
H       -2.96580200       1.85560600      -0.14583900
H       -0.61370000       2.32111300      -0.66560900
H       -0.39758300       0.61184000      -1.28259100
H       -0.27797700       1.05268800       1.72744500
H       -0.07354500      -1.89969700       0.96935200
H       -1.37566800      -1.12958300       1.99849000
H        3.68629500      -0.57289700      -0.23132500
H        2.95479300       0.28795800      -1.59404300
H        2.97534700      -1.49972500      -1.58398600
