20
Energy = -10972.6410667667 eV
C       -2.28128300      -0.65702900      -0.07352000
C       -1.93600600       0.39538400       0.74455900
C       -1.07955700       1.41281500       0.30401300
C       -0.53812800       1.38969800      -0.95126000
C        0.53196600      -0.68961100      -0.80856100
C       -0.42950500      -1.60671500      -0.43021700
C        1.45848600      -0.20105100       0.23363500
O        1.22149200      -0.32385400       1.42339700
N        2.58678900       0.44050900      -0.21129700
H       -2.38481400      -0.50187900      -1.13877900
H       -2.87981800      -1.46660300       0.32451000
H       -2.14389000       0.32735900       1.80550500
H       -0.67052800       2.09204300       1.04142800
H        0.23271000       2.09749600      -1.22792100
H       -1.04342300       0.90422800      -1.77293700
H        0.81623600      -0.58339500      -1.84776600
H       -0.85464300      -2.26155400      -1.17911400
H       -0.36886300      -1.99749500       0.57523300
H        3.28888100       0.63751200       0.48112700
H        2.88844200       0.32419500      -1.16182800
