20
Energy = -10972.5824181206 eV
C        2.26605800       0.72850600       0.03246900
C        1.97706200      -0.43355600       0.71014900
C        1.14175200      -1.41503400       0.15678600
C        0.57209100      -1.25134500      -1.07893000
C       -0.57322500       0.69507300      -0.77062200
C        0.31233000       1.63739500      -0.28651600
H        2.34469600       0.72162200      -1.04516800
H        2.83019200       1.51114000       0.52359900
H        2.23270000      -0.50547200       1.76230500
H        0.77890900      -2.20739400       0.80106200
H       -0.18575300      -1.93922500      -1.43034100
H        1.06865000      -0.67644200      -1.84639900
H       -0.82174000       0.67565800      -1.82254200
H        0.73328800       2.35873800      -0.97383300
H        0.22796400       1.98233600       0.73398000
C       -1.61935000       0.06833000       0.07788200
O       -2.63875200      -0.39974600      -0.39299600
N       -1.38486400       0.08423800       1.42984000
H       -2.00949800      -0.48332900       1.97848500
H       -0.43701900       0.16448100       1.75827900
