20
Energy = -12550.4037580535 eV
H       -0.75944200       2.55567900      -0.22304800
C       -1.04822200       1.53225900      -0.42177400
C       -2.23911900       1.03265200       0.03521400
H       -0.52729800       1.06710200      -1.24651900
C        0.07033100      -1.01348400       0.79164700
C       -2.53039200      -0.33623300      -0.03770400
H       -2.87439500       1.66208100       0.64786200
C        0.37393200       0.33100700       0.89460600
H       -0.40671700      -1.57950000       1.57588600
C       -1.61584900      -1.23224300      -0.53766400
H       -3.39364900      -0.70908500       0.50170800
C        1.56209200       0.60419800       0.05942700
H        0.12630500       0.98392700       1.71260600
H       -1.82585100      -2.29431500      -0.49945300
H       -0.93476100      -0.93155400      -1.32267300
O        2.16777000       1.62218100      -0.10850900
O        1.89477200      -0.55372900      -0.59382000
C        1.16233400      -1.64656700      -0.03959300
H        0.81499900      -2.27355300      -0.86007100
H        1.83276800      -2.23768800       0.58985700
