23
Energy = -13619.9603557283 eV
C       -2.49962700       0.96800000      -0.15197400
C       -2.60739800      -0.38806000       0.06609700
C       -1.70007400      -1.07314000       0.88573500
C       -0.68344700      -0.42217400       1.52327000
C        0.36256900       0.62631000      -0.38108100
C       -0.66868900       1.10946500      -1.15750800
C        0.96412200      -0.68523400      -0.68627500
O        0.54852000      -1.55240400      -1.40344300
O        2.15693400      -0.79241600      -0.03290100
C        2.37128900       0.33762000       0.82429000
H       -2.12374600       1.61779900       0.62739700
H       -3.17405100       1.44736100      -0.85022600
H       -3.26131300      -0.97002300      -0.57256300
H       -1.69083500      -2.15519600       0.84820200
H        0.07549200      -0.98747700       2.04917000
H       -0.75866200       0.62312800       1.78294300
H       -0.78068800       2.18052000      -1.27287900
H       -0.97652500       0.50692800      -2.00042500
C        1.37390600       1.42286600       0.39611000
H        3.40954800       0.64286700       0.71410400
H        2.20777800       0.02019000       1.85547700
H        1.85606100       2.16200800      -0.24800000
H        0.96313700       1.95568300       1.25524600
