22
-627.861503 Hartree
 C                 -2.01743400    2.85169100   -0.01050600
 O                 -1.26904900    1.68341000    0.23428200
 C                 -1.05919300    0.93704400   -0.94045000
 C                 -0.09396800   -0.17222800   -0.58912700
 N                 -0.21075100   -1.24532600   -1.45740100
 O                  0.93924700   -1.89819300   -1.55820200
 C                  1.30357700    0.30753400   -0.25390300
 O                  1.82685300    1.23910700   -0.80481500
 O                  1.86503700   -0.40280500    0.72210300
 C                  3.19914300   -0.00629000    1.06343500
 O                 -1.13066300   -2.11979000    0.12298800
 H                 -3.00777400    2.61206600   -0.41489700
 H                 -2.13686300    3.36628800    0.94007500
 H                 -1.50001100    3.51233000   -0.71537600
 H                 -1.99188900    0.49089300   -1.30383900
 H                 -0.63517400    1.57529800   -1.72548900
 H                  0.74646100   -2.63900700   -2.14991000
 H                  3.85613600   -0.10848600    0.20132400
 H                  3.21119600    1.02879500    1.39951000
 H                  3.50685500   -0.67356600    1.86187700
 H                 -0.59698300   -0.82017500    0.33305500
 H                 -1.63891800   -2.88779500    0.42812500

