30
#Cluster:4
C          -2.63670000      2.30730000     -0.66240000
C          -1.53330000      1.68560000     -0.00970000
C          -0.15960000      2.13510000     -0.45590000
O           0.89105535      1.45164699      0.19777655
C           1.79787911      0.77663593     -0.62251884
C           2.63552184      1.70636391     -1.48638560
O           2.42797429      2.87333041     -1.67110933
O           3.65291844      1.04882161     -2.05276489
C          -1.69914858      1.28705411      1.44558196
O          -1.10096302      0.05481739      1.77736599
C          -0.99028464     -0.77399253      0.69821594
C          -0.41716304     -2.03261963      0.84499999
C          -0.22810188     -2.80957978     -0.28418498
C          -0.59418983     -2.34286779     -1.53779428
C          -1.16364361     -1.08303282     -1.66619030
C          -1.39460000     -0.30520000     -0.54250000
H          -2.28050000      0.90950000     -0.83150000
H          -2.47244054      2.92079312     -1.52638008
H          -3.58615253      2.39805896     -0.17145953
H          -0.08255582      3.19889588     -0.18934442
H          -0.07538853      2.05968417     -1.54252581
H           2.46251616      0.22318672      0.04514566
H           1.29884961      0.05112723     -1.28467309
H           4.17908423      1.65010882     -2.60530334
H          -2.77248043      1.23987915      1.67992953
H          -1.22716081      2.04805450      2.07378141
H          -0.11178192     -2.37265781      1.82201280
H           0.22545518     -3.78541356     -0.18771585
H          -0.42896609     -2.95476100     -2.41290601
H          -1.44362366     -0.71907250     -2.64786865
