25
Properties=species:S:1:pos:R:3:forces:R:3 charge=0 spin=1 energy=-19629.275607659227 pbc="F F F"
C       -2.64976991      -0.65339053      -0.58112933      -0.00009754      -0.00033642       0.00039281
N       -1.24392442      -0.56118141      -0.90803858      -0.00015748      -0.00052299      -0.00017326
C       -0.33289762       0.10524287      -0.05443016      -0.00052267       0.00006034      -0.00000123
N        0.35838720      -2.13760330       0.82875464       0.00123159      -0.00013499      -0.00003661
O       -0.34487765      -2.65517058       0.14980175      -0.00084664      -0.00032299      -0.00087622
C       -0.65819838       1.50648344       0.44395197      -0.00069966      -0.00009663      -0.00124215
C       -1.61224305       2.35161377      -0.37046659       0.00092416       0.00068397      -0.00076301
O       -0.17146599       1.92713306       1.46606762       0.00114174       0.00094521      -0.00061082
C        1.03720348      -0.00789024      -0.61254960      -0.00062168      -0.00046824       0.00046989
O        1.29421332      -0.66050194      -1.60449629      -0.00072914      -0.00085134       0.00066786
O        1.96603319       0.65754196       0.08268784      -0.00063036      -0.00050275       0.00035459
C        3.29687271       0.54288762      -0.42780214      -0.00025280       0.00047702       0.00042639
O       -0.76843562      -1.25815095       2.13401799       0.00041390       0.00010468       0.00011567
H       -3.24497773       0.20191781      -0.91709470       0.00047562       0.00029311       0.00125358
H       -2.76330195      -0.74288988       0.49980245       0.00005695      -0.00179616       0.00027799
H       -3.07233782      -1.55056409      -1.03654148      -0.00013860      -0.00049902       0.00052054
H       -0.99181919      -0.59582806      -1.88456091       0.00051792       0.00131915       0.00000552
H       -1.35489232       3.39618149      -0.20985057       0.00013399       0.00102541       0.00006283
H       -1.58127616       2.10284292      -1.43058595       0.00015736      -0.00052904      -0.00051156
H       -2.63197604       2.19849352      -0.01286242       0.00148669       0.00001452       0.00047078
H        3.62727392      -0.49508686      -0.40898436      -0.00087455      -0.00003878      -0.00056556
H        3.34782506       0.90876515      -1.45193361      -0.00014296       0.00074716       0.00023925
H        3.91285808       1.15132518       0.22665978      -0.00043126       0.00031959       0.00137402
H       -0.20904674      -0.95691759       2.86255927      -0.00026869       0.00032443      -0.00135105
H       -0.50160637      -0.49565335       1.18225335      -0.00012574      -0.00021533      -0.00050061
