26
Properties=species:S:1:pos:R:3:forces:R:3 charge=0 spin=1 energy=-17741.11394263722 pbc="F F F"
C        2.57016895      -0.03295940      -0.90850399       0.00050087       0.00053506      -0.00017099
C        3.04848599       0.56482686       0.39828078       0.00027914      -0.00028341       0.00020473
C        3.89291365      -0.40978808       1.18533124      -0.00048641       0.00073625      -0.00010960
O        4.97039862      -0.15729896       1.64532761      -0.00006986       0.00017896       0.00061728
C        1.49250132      -0.92354896      -0.93543729      -0.00004336      -0.00071418      -0.00001926
O        0.23739914       0.55289501      -1.59447155       0.00036830       0.00016048      -0.00004360
C       -0.51207157       1.07562945      -0.64143932      -0.00006614       0.00008283      -0.00043840
O       -0.25049266       2.13119282      -0.10053037       0.00079909       0.00014839      -0.00007230
C       -1.69197451       0.24366900      -0.22403943      -0.00101642       0.00095765       0.00038536
C       -2.41721353       0.63047032       0.89776368       0.00070647      -0.00074506      -0.00068193
C       -3.50903483      -0.11550966       1.30985981      -0.00016054      -0.00069502      -0.00032023
C       -3.88371299      -1.24885426       0.59956764      -0.00039417       0.00072502      -0.00007101
C       -3.16718719      -1.63423165      -0.52454572      -0.00105971       0.00019809       0.00050246
C       -2.07174995      -0.88946807      -0.93526587       0.00028981      -0.00012860       0.00020739
H        1.62944659       0.70416620      -1.36841254       0.00057003       0.00002928       0.00012007
H        3.30125135      -0.12713283      -1.70561292      -0.00048772      -0.00051309       0.00093729
H        3.62530661       1.47276667       0.23186112      -0.00083552       0.00033052      -0.00022923
H        2.18304994       0.83078746       1.01502368       0.00085345      -0.00095490       0.00026160
H        3.44424979      -1.41880044       1.31794986      -0.00031941       0.00012820      -0.00080739
H        0.90101426      -1.13932726      -0.05331861       0.00020206       0.00021907      -0.00132320
H        1.30757224      -1.55324146      -1.79327479       0.00001762       0.00019911      -0.00030018
H       -2.10889158       1.52171459       1.42765809       0.00001009      -0.00028010      -0.00020808
H       -4.07176726       0.18700047       2.18343449      -0.00032018       0.00030326       0.00029875
H       -4.73899606      -1.82970850       0.92045612      -0.00004288      -0.00046523       0.00066133
H       -3.46517110      -2.51172451      -1.08380977      -0.00012915      -0.00059959       0.00002760
H       -1.51488522      -1.16962482      -1.81957196       0.00083443       0.00044692       0.00057134
