19
Properties=species:S:1:pos:R:3:forces:R:3 charge=0 spin=1 energy=-18500.03215300216 pbc="F F F"
C        2.05435727       1.99139929      -0.48636360      -0.00027552       0.00004687      -0.00021351
N        1.06178953       1.37070480       0.38106317      -0.00064907       0.00028617      -0.00055068
C        0.65311377       0.07119071      -0.05978098      -0.00003110       0.00034787      -0.00109519
O       -0.43160843      -0.36193160       0.69252643       0.00025905       0.00005318      -0.00052202
N       -2.11354624       0.64517486       0.12993937       0.00001295      -0.00004373       0.00016686
O       -2.67373529       0.81640805       1.12937413      -0.00132716      -0.00064920       0.00062127
O       -1.84975133       1.16870346      -0.86592821       0.00084693       0.00052881       0.00070273
C        1.73299798      -1.00552627       0.11916479      -0.00130248       0.00019465       0.00019385
O        2.67759195      -0.91227862       0.85318196       0.00156321       0.00016977       0.00017972
O        1.47764599      -2.09053665      -0.63071191      -0.00000199       0.00011216       0.00107688
O       -2.31526659      -1.20510892      -0.36653127       0.00013831       0.00065610      -0.00075570
H        2.31180104       2.97169458      -0.08937624      -0.00030824      -0.00124193       0.00082991
H        2.97865877       1.41002311      -0.59207547      -0.00159875      -0.00022518      -0.00046693
H        1.62227094       2.13903683      -1.47766127       0.00137852       0.00015336      -0.00067862
H        1.42068510       1.29117738       1.32634672       0.00017112      -0.00137278       0.00069188
H        0.40870766       0.13031059      -1.13116365      -0.00035722       0.00025994      -0.00173211
H        2.16219388      -2.74510709      -0.42644763       0.00029358      -0.00013914       0.00064663
H       -2.90991244      -1.62209577       0.27066861       0.00226099      -0.00021725       0.00026415
H       -1.24573354      -1.08945875       0.12913506      -0.00107310       0.00108029       0.00064102
