19
Properties=species:S:1:pos:R:3:forces:R:3 charge=0 spin=1 energy=-10946.320798648674 pbc="F F F"
N       -0.89140017       0.88635497       0.03104046       0.00009241      -0.00041617      -0.00008025
C       -1.68713114      -0.16020762       0.64479837      -0.00007156       0.00014472       0.00027656
C       -2.45318958      -0.96023584      -0.39786319       0.00016506      -0.00037608       0.00055378
C        0.38913457       1.09475044       0.05356077       0.00018510      -0.00016279      -0.00032540
O        0.61917008       2.22307431      -0.52794138      -0.00021357      -0.00005895      -0.00070991
C        1.50713417       0.27428400       0.63776147       0.00022199       0.00027594       0.00028998
O        1.28190421      -1.11122267       0.59186109       0.00024639       0.00018858      -0.00008806
C        1.38039418      -1.62449994      -0.72349296      -0.00014066       0.00013361      -0.00029685
H       -0.67715066       2.06856048      -0.56248964      -0.00024232       0.00017492       0.00061781
H       -1.04384257      -0.81625869       1.23167024      -0.00037902      -0.00056962       0.00004961
H       -2.39200916       0.31309784       1.33265087      -0.00050701       0.00010520       0.00032354
H       -3.09534069      -1.70064041       0.08087609      -0.00058354       0.00059050       0.00041556
H       -1.76853582      -1.48215088      -1.06721911      -0.00008953      -0.00031180      -0.00040031
H       -3.07783774      -0.30109551      -1.00136599       0.00068948      -0.00067845      -0.00020262
H        1.61378767       0.55235500       1.68785638      -0.00025496       0.00039489       0.00044752
H        2.42932092       0.55302043       0.11762147       0.00050256      -0.00035396      -0.00026673
H        0.64675342      -1.16308215      -1.39263935       0.00088087       0.00122227      -0.00095604
H        2.38260810      -1.45784065      -1.13272747       0.00094276      -0.00097375       0.00065139
H        1.18871021      -2.69343312      -0.66549812      -0.00144438       0.00067095      -0.00029958
