23
Properties=species:S:1:pos:R:3:forces:R:3 charge=0 spin=1 energy=-13051.70194007311 pbc="F F F"
C        3.23203634      -0.30184802       0.04634409      -0.00052555      -0.00065456      -0.00009263
N        2.03145525      -0.76715792      -0.60779138      -0.00045946      -0.00087977       0.00003382
C        0.87374905      -0.92399392       0.16441678      -0.00032706      -0.00000485      -0.00017845
C        0.55636978       0.72201604       1.31684414       0.00008834       0.00029252       0.00032099
C        0.41910735       1.62997243       0.26534347      -0.00113789       0.00074742       0.00017155
C       -0.50590431       1.47772936      -0.74481757       0.00072901      -0.00063179      -0.00049879
C       -1.41492604       0.41246963      -0.70789932       0.00053328      -0.00084222      -0.00058483
O       -2.18605909       0.21969366       0.36770107       0.00125531      -0.00044952       0.00021408
C       -3.01107533      -0.94160744       0.32110803       0.00026352       0.00065292       0.00041653
O       -0.22222428      -1.11510914      -0.47117100      -0.00025071      -0.00082442      -0.00192679
H        3.41330159      -0.90359455       0.93820653       0.00041207       0.00105242       0.00078986
H        3.18257573       0.75107085       0.35310975       0.00073180      -0.00111097       0.00082457
H        4.08559249      -0.43038720      -0.61759737      -0.00030108       0.00090390      -0.00054544
H        1.81795870      -0.30567530      -1.48103304      -0.00074081       0.00073992       0.00044611
H        1.05112289      -1.50474038       1.07431900      -0.00021714       0.00020632      -0.00089235
H       -0.32356048       0.27048849       1.74796093       0.00055287       0.00105341       0.00102108
H        1.38178282       0.85958442       2.00513417      -0.00006560       0.00062678       0.00091025
H        1.22429743       2.33901953       0.09460742       0.00088583      -0.00135038      -0.00029048
H       -0.34973313       1.96185315      -1.69948390      -0.00031818       0.00091278       0.00000119
H       -1.83737991       0.04659992      -1.64043287      -0.00008935       0.00039708      -0.00088344
H       -3.57016666      -0.97031637      -0.61811434      -0.00041348      -0.00046486       0.00021926
H       -2.40173758      -1.83862178       0.41219787       0.00063740      -0.00010568       0.00004922
H       -3.70452261      -0.86242546       1.15368757      -0.00124314      -0.00026641       0.00047458
