15
Properties=species:S:1:pos:R:3:forces:R:3 charge=0 spin=1 energy=-11343.49876161743 pbc="F F F"
O       -3.42776717      -0.09805395       0.00029576      -0.00053070       0.00048264      -0.00000620
N       -2.31629878       0.53801600       0.00022092       0.00088688      -0.00061747      -0.00000714
N       -1.45116348      -0.38453828       0.00007519      -0.00049348       0.00114264      -0.00000759
C       -0.05810857      -0.15584046      -0.00002959      -0.00083855      -0.00048163       0.00000560
C        0.48291677       1.12636540      -0.00001613       0.00071602      -0.00005476       0.00000995
C        1.85918611       1.27434405      -0.00008624       0.00042566       0.00042216       0.00000348
C        2.69184033       0.16200250      -0.00017313      -0.00100310       0.00125601      -0.00000949
C        2.14067260      -1.11041256      -0.00020604      -0.00100245       0.00018621       0.00000419
C        0.76440660      -1.27349656      -0.00013556      -0.00033640      -0.00056730       0.00000822
H       -2.53295345      -1.10336627       0.00014567      -0.00011899      -0.00082298      -0.00000993
H       -0.16907339       1.98831863       0.00005276       0.00109270       0.00023574       0.00001454
H        2.28582695       2.26886097      -0.00006985      -0.00035428      -0.00074178       0.00000158
H        3.76610985       0.28894734      -0.00021443       0.00159134       0.00062745      -0.00002286
H        2.78222474      -1.98164540      -0.00028270      -0.00031381       0.00035651       0.00000241
H        0.31845089      -2.25928141      -0.00015663       0.00027907      -0.00142350       0.00001326
