18
Properties=species:S:1:pos:R:3:forces:R:3 charge=0 spin=1 energy=-79489.60790217285 pbc="F F F"
C        0.44653325       2.49646469      -0.60409421       0.00032306      -0.00059743       0.00051791
O        1.37991909       1.57916883      -0.05365441       0.00049673      -0.00136246      -0.00036839
C        0.89484495       0.76952203       0.91162145       0.00135441       0.00045995       0.00128678
C        1.62197265      -0.28105813       1.41802276       0.00000443      -0.00097197      -0.00047305
C        2.45948293      -1.08852780       0.64344315      -0.00112096      -0.00113999      -0.00093764
C        2.56410729      -0.95414872      -0.71918128      -0.00049277       0.00086575      -0.00080328
C        0.41353032      -1.21423028      -1.24534728      -0.00104151       0.00048565       0.00080967
C       -0.33564882      -0.59179791      -0.49131910       0.00069989       0.00062987       0.00075612
Br      -2.06734657      -0.21658069      -0.00243304       0.00009751      -0.00022858       0.00052490
H       -0.16457229       2.94389982       0.18477305       0.00035815      -0.00051058      -0.00188497
H       -0.20312616       1.99490816      -1.32366555       0.00091839       0.00181832       0.00021145
H        1.02273984       3.27102350      -1.10313612      -0.00157542      -0.00086140      -0.00059495
H        0.08271896       1.19841709       1.49614676       0.00006785      -0.00150238      -0.00023268
H        1.31612506      -0.63780717       2.39299312      -0.00150404       0.00049650      -0.00060629
H        2.82322493      -2.00130831       1.10022579      -0.00041522      -0.00022819       0.00026827
H        2.46543698       0.00225463      -1.20338241       0.00114793       0.00204315      -0.00012439
H        3.06971887      -1.72653545      -1.28559817       0.00075569       0.00118609       0.00038766
H        0.64621873      -1.86025428      -2.06246451      -0.00007420      -0.00058236       0.00126292
