13
Properties=species:S:1:pos:R:3:forces:R:3 charge=0 spin=1 energy=-12735.865703100264 pbc="F F F"
O       -1.32104981       0.91154675       0.63899649       0.00005156      -0.00074123      -0.00005803
C        0.11264335      -0.49713215      -0.25484131      -0.00007544       0.00007861      -0.00000041
O        1.10424172      -0.82909921       0.44130200      -0.00000810       0.00002012       0.00001566
C        2.43608846      -0.54292125      -0.08078487       0.00000757       0.00019344      -0.00035770
C       -1.24817062      -0.37273247       0.37132360      -0.00009518       0.00039686       0.00003048
F       -2.14319279      -0.81721151      -0.62936565       0.00044371       0.00004168       0.00043358
F        0.64491539       1.78291162      -0.29176046       0.00009392      -0.00036877       0.00040027
H       -0.30609576       1.56095739       0.13960121       0.00020040       0.00008271      -0.00025186
H        0.24687796      -0.22489653      -1.29848706       0.00003955      -0.00017371      -0.00028574
H        3.12119221      -1.12433466       0.52372182      -0.00026373       0.00059978      -0.00006434
H        2.58059675       0.52732249       0.03278760       0.00007642      -0.00056595       0.00018070
H        2.47946138      -0.83368738      -1.12777715      -0.00027497       0.00015890       0.00019969
H       -1.40118826      -1.05425308       1.21807377      -0.00019555       0.00027752      -0.00024227
