23
Properties=species:S:1:pos:R:3:forces:R:3 charge=0 spin=1 energy=-82635.06332915713 pbc="F F F"
C       -2.12484717       0.39730767       0.68417757      -0.00055849      -0.00095783      -0.00047640
C       -3.25034407       1.36695400       0.61777507      -0.00046821      -0.00010204       0.00008332
C       -1.53273759      -0.12116375      -0.49346261      -0.00008410      -0.00006623      -0.00012385
Br      -0.75625588      -1.86120737      -0.41862344      -0.00069698      -0.00075919       0.00058499
C       -0.59092633       1.35761950      -0.19181880       0.00018611      -0.00068324      -0.00032007
O       -0.94524809       2.27015866      -0.95752815       0.00029350       0.00015984      -0.00117404
C        0.83215189       0.90400383       0.03798696       0.00023366      -0.00014049      -0.00044617
C        1.27456908       0.38570381       1.24443774       0.00059113       0.00008693      -0.00025213
C        2.59143943      -0.02663324       1.37973647       0.00031871       0.00035955       0.00003662
C        3.46864719       0.08829865       0.31105996       0.00061961       0.00043884       0.00045631
C        3.02658345       0.62581068      -0.88989667       0.00002708       0.00061467       0.00062074
C        1.71026082       1.03739830      -1.02937623       0.00011426       0.00008024      -0.00003032
H       -0.97297159       1.48569142       0.96448506       0.00117011      -0.00052126      -0.00073379
H       -1.91541604      -0.11673189       1.61666871      -0.00075150       0.00019396      -0.00002379
H       -2.96890848       2.16150649      -0.08346601      -0.00090451      -0.00049514       0.00108840
H       -4.13306961       0.86471316       0.21694887       0.00025885       0.00194705       0.00139087
H       -3.48504786       1.78507429       1.59399622      -0.00069833       0.00107715      -0.00142137
H       -1.98850018       0.07947763      -1.45144585      -0.00082320      -0.00025419      -0.00007974
H        0.59477202       0.30281368       2.08531274       0.00147943      -0.00061088       0.00058838
H        2.93387361      -0.42995199       2.32385854      -0.00042623      -0.00161544      -0.00061768
H        4.49683802      -0.23170384       0.41726239       0.00093567       0.00039238       0.00021975
H        3.71085125       0.72609759      -1.72253023      -0.00008963       0.00177077       0.00122244
H        1.34848614       1.47018273      -1.95250830      -0.00072696      -0.00091538      -0.00059244
