27
Properties=species:S:1:pos:R:3:forces:R:3 charge=0 spin=1 energy=-36895.74666428162 pbc="F F F"
C        3.25164843      -1.29817199      -1.17517532       0.00061543       0.00032958      -0.00006623
N        3.22558473      -0.70057926       0.14855706      -0.00082532      -0.00037718       0.00069929
C        2.08477585      -0.80267312       0.91131577      -0.00018317      -0.00105445      -0.00041230
S        0.65239786       0.27234820       0.17923123       0.00019601      -0.00032750      -0.00191513
O        1.25878825       1.57906216       0.07626162       0.00006165      -0.00011016       0.00043446
O        0.14720080      -0.39960712      -0.99157628      -0.00005748       0.00042179       0.00131334
C       -1.58322573       1.71625597       0.68831557      -0.00078754      -0.00064057      -0.00078793
C       -1.27475328       3.14893031       0.39549384      -0.00010809       0.00087611      -0.00052577
C       -2.20079073       0.92920932      -0.23892393       0.00035450       0.00032783       0.00031253
Cl      -0.56924687      -0.90061661       2.20620686      -0.00025654      -0.00024974      -0.00000092
N       -2.63120746      -0.32683837      -0.06742630       0.00115185       0.00031915      -0.00017918
C       -2.98381764      -1.17123901      -1.18556703       0.00025842      -0.00061529      -0.00081300
H        2.91755096      -2.33282105      -1.10227972       0.00004218      -0.00040803      -0.00003879
H        2.60349638      -0.77915178      -1.88714206      -0.00011044       0.00035617      -0.00035062
H        4.27326502      -1.29233848      -1.54856463      -0.00029628      -0.00020636      -0.00038525
H        3.69681328       0.18858986       0.22123899       0.00011414       0.00036030       0.00042837
H        2.16989910      -0.38292524       1.90919761       0.00004220       0.00048556       0.00020409
H        1.61978365      -1.78500353       0.90452150       0.00005649       0.00084869       0.00027115
H       -1.50535806       1.37170692       1.70880811       0.00022068      -0.00002583      -0.00021681
H       -1.39157889       3.37489146      -0.66570828      -0.00001892      -0.00023758       0.00137051
H       -1.94128251       3.80941050       0.95742452       0.00075428      -0.00058129      -0.00037838
H       -0.25205672       3.39992275       0.67802055      -0.00043048      -0.00004847      -0.00050846
H       -2.34135813       1.31969084      -1.24373718      -0.00023835       0.00020491       0.00033860
H       -2.34258680      -0.77781385       0.79661804      -0.00007091      -0.00006306       0.00089565
H       -2.12043512      -1.72755124      -1.56021571      -0.00068051       0.00066615       0.00014302
H       -3.75950070      -1.87558554      -0.88751035       0.00009770       0.00001967       0.00009358
H       -3.37416566      -0.55389212      -1.99429448       0.00009814      -0.00027054       0.00007415
