28
Properties=species:S:1:pos:R:3:forces:R:3 charge=0 spin=1 energy=-18237.083839769257 pbc="F F F"
O        5.13543348      -1.22833678      -0.23747167      -0.00018820      -0.00051201      -0.00046117
C        4.33033214      -0.38723201       0.03808824      -0.00041238       0.00004170       0.00050609
C        2.84443810      -0.65193434       0.08637645       0.00028422      -0.00040055      -0.00092815
N        2.09694628       0.50133014      -0.45753513       0.00095266       0.00102349      -0.00040415
C        0.65714861       0.60484161       0.00718809      -0.00033471       0.00034401       0.00060583
C       -0.01581826       1.75532684      -0.52173239      -0.00070142       0.00025199      -0.00022689
C       -1.36345389       1.76073058      -0.65428769       0.00048753       0.00011568       0.00012747
C       -2.14759795       0.61605644      -0.33693895      -0.00000247      -0.00006904       0.00006704
C       -3.55401697       0.61456012      -0.44803176      -0.00011656       0.00011236       0.00008589
C       -4.28110852      -0.50724792      -0.15761509       0.00028733      -0.00071409       0.00009075
C       -3.61387568      -1.68009570       0.25197865      -0.00069308       0.00067929      -0.00007018
C       -2.25219204      -1.70602427       0.36610455       0.00008521      -0.00037637      -0.00004659
C       -1.47437723      -0.55510853       0.08099295      -0.00011751       0.00034703      -0.00017782
C       -0.06204088      -0.56271276       0.18346644      -0.00093821       0.00083379      -0.00029666
O        1.54495933       1.28992087       1.57311390       0.00133032      -0.00109683      -0.00131529
H        4.63551278       0.64406919       0.31087538       0.00024172       0.00107658       0.00021800
H        2.54095318      -0.71387519       1.13539296      -0.00007521      -0.00034185       0.00034078
H        2.58771706      -1.55835777      -0.45428532       0.00011157       0.00061442       0.00018625
H        2.12352538       0.51769000      -1.47606295      -0.00018346      -0.00031497       0.00106783
H        0.56641703       2.64355708      -0.73992614      -0.00008782       0.00000592      -0.00000877
H       -1.86205431       2.65489501      -1.01032508       0.00030737      -0.00038643       0.00007203
H       -4.05159179       1.52239802      -0.77057225       0.00047455      -0.00078521       0.00013732
H       -5.35970858      -0.50005770      -0.24187300       0.00052320      -0.00020974       0.00005998
H       -4.18900572      -2.56903730       0.47944506      -0.00004731       0.00037879      -0.00005863
H       -1.74767586      -2.61131432       0.68386926      -0.00044442       0.00091169      -0.00016432
H        0.42285656      -1.47266792       0.51244074       0.00067341      -0.00149339       0.00025600
H        0.83384186       1.55816170       2.15975655      -0.00140183       0.00087161       0.00092024
H        2.48433590       1.36088489      -0.04314181      -0.00001454      -0.00090801      -0.00058284
