26
Properties=species:S:1:pos:R:3:forces:R:3 charge=0 spin=1 energy=-21569.4025726294 pbc="F F F"
C        1.77383453       1.01594482       1.44197938      -0.00000194       0.00012594      -0.00006842
N        1.93136378      -0.10096659       0.52281900      -0.00003996      -0.00023595      -0.00038856
C        3.30234716      -0.44427286       0.16707218      -0.00013083      -0.00019260      -0.00003601
C        0.92593720      -0.82855641       0.03409912      -0.00018900       0.00037854       0.00001893
O        1.15036739      -1.90050493      -0.57997305       0.00029553       0.00017491      -0.00003608
C       -0.49163458      -0.44074271       0.27914390      -0.00022393       0.00021461      -0.00028387
N       -1.52499388      -1.12502230      -0.51978284      -0.00011916       0.00009794      -0.00011760
O       -1.14237717      -2.13548563      -1.17819257      -0.00033073       0.00009954       0.00004633
N       -0.81277596       0.94921447       0.28375042       0.00024576       0.00053643       0.00001498
C       -1.90115755       1.44910536       1.11985725      -0.00042601      -0.00040092      -0.00090549
N       -0.67654669       1.57967421      -0.93912164      -0.00017068       0.00048206       0.00032934
O       -0.00408880       1.00151819      -1.77576600      -0.00009506      -0.00006799      -0.00026254
O       -1.19936208       2.66470300      -1.06718420      -0.00023279      -0.00084763       0.00015000
O       -2.12713202      -1.74712490       1.32424908       0.00024986      -0.00018217       0.00041963
H        1.72182448       1.97069859       0.91502553       0.00011026       0.00051815       0.00017510
H        2.64204210       1.02752244       2.10023883      -0.00001489      -0.00033779      -0.00009857
H        0.88650695       0.89539319       2.05548416       0.00003236      -0.00005070      -0.00012670
H        3.82150907      -0.88040464       1.02299164       0.00066210      -0.00004832      -0.00011738
H        3.82425246       0.46263311      -0.14037701       0.00022255       0.00019505       0.00049221
H        3.30000843      -1.15667481      -0.64997282      -0.00017974      -0.00090717       0.00058810
H       -0.07460974      -2.24730822      -1.01073274       0.00007167       0.00003916      -0.00040400
H       -1.73586015       2.49779837       1.35033481      -0.00020711       0.00005929       0.00026067
H       -2.86592978       1.32804986       0.62778971      -0.00020997       0.00018401      -0.00047297
H       -1.90053884       0.85757428       2.02994071       0.00037356      -0.00007033       0.00091200
H       -0.96072247      -1.02510233       1.27300845       0.00014404       0.00024304      -0.00009332
H       -2.21926386      -2.69827358       1.46629869       0.00016392      -0.00000736       0.00000430
