25
Properties=species:S:1:pos:R:3:forces:R:3 charge=0 spin=1 energy=-19405.00871877389 pbc="F F F"
C        2.90600253      -0.73798199      -0.47185567      -0.00053793      -0.00058405      -0.00031698
O        3.30905173      -0.24967380       0.74961573       0.00065304       0.00188029      -0.00148072
C        3.66683255       1.13448522       0.69991010      -0.00085078      -0.00087049      -0.00076688
C        1.75501235      -1.54974808      -0.45812391      -0.00056734      -0.00072987      -0.00094299
F        1.06092805      -1.69200557       0.61897948       0.00055688       0.00020312      -0.00012027
O        0.74341582       0.10034860      -1.42968277       0.00162126       0.00017544      -0.00030220
C        0.03420996       0.89462390      -0.67128271       0.00022562      -0.00000132       0.00055065
O        0.43227236       1.97847268      -0.27851003      -0.00028834      -0.00088368       0.00046049
C       -1.32077880       0.37258421      -0.26922130      -0.00041589       0.00030125       0.00044184
C       -2.03978633       1.05990373       0.70179214      -0.00045936      -0.00079550       0.00012060
C       -3.29027917       0.60819537       1.09153197      -0.00004808      -0.00010552       0.00112477
C       -3.83102617      -0.52976163       0.50773077      -0.00027650      -0.00083557      -0.00064919
C       -3.12035732      -1.21453039      -0.46787214      -0.00040848       0.00088340      -0.00017617
C       -1.86629083      -0.76520901      -0.85335945      -0.00010394       0.00005639      -0.00041401
H        2.18129389       0.04668771      -1.10772466      -0.00059325      -0.00039689      -0.00024349
H        3.68945748      -1.05882503      -1.16274967      -0.00072147       0.00047430       0.00109028
H        4.47862912       1.29613719      -0.01542325      -0.00044865      -0.00081952       0.00171600
H        4.00935280       1.39674060       1.69699914       0.00148836       0.00199247      -0.00050308
H        2.80033169       1.74095810       0.42714135       0.00117859      -0.00062399       0.00015740
H        1.45402346      -2.18020980      -1.28482299       0.00135243       0.00007354       0.00074168
H       -1.60066847       1.94813892       1.13559502      -0.00029199      -0.00110060      -0.00075611
H       -3.84639099       1.14485830       1.84922848      -0.00037616       0.00046426       0.00091431
H       -4.80914622      -0.88089219       0.81109331      -0.00052756       0.00081236      -0.00119427
H       -3.54542463      -2.09604506      -0.93071129       0.00018782       0.00048630       0.00102169
H       -1.30932485      -1.28335198      -1.62306768      -0.00034822      -0.00005598      -0.00047329
