27
Properties=species:S:1:pos:R:3:forces:R:3 charge=0 spin=1 energy=-32532.458319270583 pbc="F F F"
N       -1.28795482       3.21716675      -0.55860733       0.00034259       0.00052993       0.00008248
C       -1.61379203       2.15419491      -0.26459199      -0.00058934      -0.00056688       0.00007453
C       -1.99229141       0.83217054       0.16238926       0.00003178      -0.00020687       0.00037416
N       -1.03988405       0.25743312       1.04962289      -0.00019214       0.00045825      -0.00015518
C       -0.62168096      -1.12221316       0.95218640       0.00011179      -0.00017597      -0.00020796
S        0.24203390      -1.38533875      -0.65709308       0.00038928      -0.00056135      -0.00043407
O        0.65705722      -2.80282523      -0.56133981       0.00067150      -0.00069228       0.00047591
C        1.67363242      -0.37412861      -0.29978750      -0.00002589      -0.00007398       0.00040587
C        2.77179434      -0.96799074       0.30178477      -0.00041501      -0.00003688       0.00008940
C        3.89101862      -0.19310937       0.56432407      -0.00024697       0.00048688      -0.00011975
C        3.89980130       1.15332631       0.22312652       0.00037911      -0.00015415       0.00164261
C        2.79728918       1.73055905      -0.39197768      -0.00001108       0.00073621      -0.00077183
C        1.67535630       0.96331275      -0.66727610       0.00029661       0.00007462       0.00038331
C       -2.85107366       0.09384500      -0.78641625      -0.00023503      -0.00031388       0.00026762
O       -3.37485909       0.59204873      -1.74417302       0.00007342      -0.00038284       0.00022220
O       -3.04964121      -1.20057953      -0.43839736       0.00007626       0.00019836      -0.00004930
O       -2.00334531       0.29502537       2.36581624       0.00070363       0.00091318       0.00118687
H        0.10749648      -1.33861254       1.73120917      -0.00010709      -0.00010450      -0.00031099
H       -1.42805187      -1.85088852       0.94634813      -0.00039429       0.00030251       0.00051925
H        2.74017120      -2.02541135       0.53409341       0.00016923       0.00074145      -0.00048543
H        4.75902768      -0.64079716       1.03030196      -0.00125835      -0.00038287      -0.00120483
H        4.77629482       1.75399810       0.42821573       0.00120521      -0.00075255       0.00062985
H        2.81007641       2.77641047      -0.66756356       0.00019354       0.00118098      -0.00064282
H        0.82053133       1.40755677      -1.16122282      -0.00049168      -0.00083435      -0.00031737
H       -3.63602379      -1.57121076      -1.11469761       0.00012599       0.00054276      -0.00012103
H       -2.62317580       0.82996239       1.50942595       0.00002784       0.00011809      -0.00013143
H       -1.58865717       0.96043545       2.94131962      -0.00083090      -0.00104395      -0.00140198
