21
Properties=species:S:1:pos:R:3:forces:R:3 charge=0 spin=1 energy=-38354.96968229186 pbc="F F F"
C        2.83894538       1.92056166      -0.23107627       0.00035498      -0.00050580       0.00001937
O        3.55728803       0.71925989      -0.01780502       0.00052235       0.00016593       0.00056102
C        2.79333966      -0.25990205       0.61488427       0.00052348      -0.00022973       0.00021306
O        1.76328692      -0.73816051      -0.19455661       0.00025645       0.00083369      -0.00005566
S       -0.19743680      -0.57722817       0.26697491      -0.00018240      -0.00035104      -0.00188857
O        0.07209627      -0.74338977       1.66061319       0.00070206       0.00128888       0.00151072
O       -0.30182221       0.64320475      -0.46177116      -0.00013395      -0.00069049       0.00037567
O       -1.80133717      -1.10138935       0.22414809       0.00014303       0.00015739      -0.00067931
C       -2.75306738      -0.19312197       0.68458148      -0.00010440      -0.00042752       0.00053710
Cl      -3.58558236       0.62862755      -0.66968207      -0.00050607      -0.00021533       0.00068004
N        0.08084324      -2.06602503      -0.71462308      -0.00073421      -0.00017054       0.00037312
H        2.42919245       2.30034873       0.71254724       0.00025213       0.00069946      -0.00005153
H        3.54308099       2.64621347      -0.63225836       0.00024700      -0.00018048      -0.00036316
H        2.01689111       1.77619162      -0.93402542      -0.00101465      -0.00010856      -0.00030115
H        2.35230556       0.13277624       1.54107960      -0.00033334       0.00014114       0.00016179
H        3.48672612      -1.07038734       0.84942481      -0.00044113      -0.00043102       0.00062210
H       -2.31643683       0.58182002       1.30899091       0.00050021      -0.00075700      -0.00024930
H       -3.51338893      -0.74718733       1.22548235       0.00040869       0.00045665      -0.00023871
H        1.20607208      -1.87546347      -0.67380956      -0.00025019       0.00025757       0.00070443
H       -0.30721909      -2.85664268      -0.20821481      -0.00018756       0.00030967      -0.00149593
H       -0.38470705      -1.96071627      -1.61277450      -0.00002253      -0.00024276      -0.00043532
