29
Properties=species:S:1:pos:R:3:forces:R:3 charge=0 spin=1 energy=-20157.51284241979 pbc="F F F"
C       -3.96139628      -0.42658747      -0.02659236      -0.00111596       0.00071776      -0.00047639
C       -2.64407712      -1.03960864       0.36321301      -0.00108975       0.00048230      -0.00110086
O       -2.34456876      -1.26086192       1.51289149       0.00178745      -0.00039631       0.00105382
C       -1.66047489      -1.30793417      -0.76631004      -0.00055246       0.00066789       0.00035242
N       -0.86127317      -0.09240485      -0.95587247      -0.00072455       0.00065846       0.00099053
C        0.19700045       0.09485356      -0.01925321       0.00004753      -0.00001667      -0.00006700
N       -0.71467544       2.04174291       0.82418865       0.00046060      -0.00047283      -0.00054909
O       -1.64963922       2.10857748       0.22155053       0.00004892      -0.00114940       0.00143453
C        1.51448985      -0.45815476      -0.52457275       0.00001354      -0.00071499       0.00055269
O        1.61080400      -0.86575564      -1.67614292       0.00074741       0.00031824      -0.00078129
N        2.55761378      -0.43420120       0.34127768      -0.00019526      -0.00073156       0.00062406
C        2.45024927       0.06972470       1.69568889       0.00044796       0.00014122       0.00034831
C        3.82208062      -1.02913712      -0.03974709       0.00059744       0.00019382       0.00002335
O        0.85654844       2.64593223      -0.20868484       0.00047551       0.00007015      -0.00033897
H       -4.55481103      -1.16802406      -0.56733456      -0.00014461      -0.00055130       0.00007755
H       -4.50544904      -0.09988443       0.85548197      -0.00185944       0.00129454       0.00065784
H       -3.79207702       0.40853678      -0.70831457       0.00057340       0.00106149      -0.00088353
H       -2.19932968      -1.51181469      -1.69252664       0.00131735      -0.00109852       0.00049201
H       -1.04540918      -2.17666624      -0.51160056       0.00002745      -0.00109788      -0.00143624
H       -0.45843775      -0.10214953      -1.88671387       0.00144899      -0.00166176       0.00034647
H       -0.05595460      -0.30638731       0.95891731      -0.00014214       0.00006726      -0.00049211
H        1.73753627       0.88865174       1.75433439       0.00006993      -0.00093127      -0.00072709
H        2.16049650      -0.71271058       2.40473751      -0.00043983       0.00035907       0.00068940
H        3.42042469       0.46290790       1.99832838       0.00082583      -0.00021423       0.00055128
H        4.05483599      -1.88328212       0.60228022      -0.00104475       0.00001522       0.00011252
H        4.62575212      -0.29566879       0.05292313       0.00043170       0.00168843      -0.00112617
H        3.75537529      -1.36179751      -1.07047501      -0.00111925       0.00080271      -0.00024109
H        0.61361478       1.39735332      -0.11473700      -0.00092780       0.00037884       0.00010188
H        0.52463112       2.93946039      -1.06739526       0.00003459       0.00011922      -0.00018890
