26
Properties=species:S:1:pos:R:3:forces:R:3 charge=0 spin=1 energy=-27640.01015681034 pbc="F F F"
C        3.36949955       0.05452994       1.32349795       0.00151437       0.00024833      -0.00103364
C        2.39805190      -0.17682776       0.20013804       0.00080879       0.00202084       0.00012341
O        1.97668105       0.72912448      -0.48346789       0.00056600      -0.00163399       0.00055440
C        1.96517383      -1.61021538      -0.03979183       0.00085912      -0.00108783       0.00012245
C        0.61382284      -1.70676779      -0.71071570      -0.00094718       0.00128109       0.00002468
O       -0.36765686      -1.23028359       0.20857954      -0.00156918      -0.00095739       0.00143153
C       -1.00582548       0.52602799       0.64791052       0.00005302      -0.00012931       0.00116331
O       -1.02547937       0.53613965       1.80455223       0.00013158      -0.00199115       0.00034163
N       -0.88244543       1.29999227      -0.39215860       0.00016955       0.00047674      -0.00146039
C       -0.55592410       2.70291102      -0.12490339       0.00051025       0.00131858      -0.00013249
C       -1.03195667       0.91724890      -1.78414062      -0.00001570       0.00013394      -0.00059747
Cl      -3.11236978      -0.90139213      -0.07169151       0.00078474      -0.00013324      -0.00032218
H        3.77350774       1.06223229       1.27297405      -0.00158290      -0.00068426       0.00098335
H        2.83979425      -0.07942148       2.27019322       0.00081418       0.00111143       0.00043738
H        4.17395614      -0.68230597       1.29945043      -0.00141509       0.00024718      -0.00053904
H        1.95462395      -2.15875197       0.90403875       0.00037930      -0.00053699      -0.00098279
H        2.73124801      -2.07514923      -0.67022855      -0.00007255       0.00018198       0.00112743
H        0.37950778      -2.74635903      -0.94409332      -0.00041461      -0.00005892       0.00068713
H        0.60391985      -1.13102934      -1.63584341      -0.00082496       0.00060306      -0.00146237
H        0.39746072       2.93464868      -0.59908625      -0.00091036      -0.00058955       0.00066250
H       -0.47581371       2.86377183       0.94568392      -0.00053156      -0.00082172      -0.00211083
H       -1.34372745       3.33889668      -0.52865001       0.00147813       0.00074367       0.00025666
H       -1.49986187      -0.05843671      -1.84630838       0.00025663      -0.00007631       0.00035196
H       -1.69923210       1.63525789      -2.26020027       0.00134815      -0.00086042       0.00042071
H       -0.05735234       0.94298649      -2.27120230      -0.00179646       0.00114622       0.00010997
H       -1.31956247      -1.51613771       0.01208338       0.00040679       0.00004798      -0.00015737
