10
Properties=species:S:1:pos:R:3:forces:R:3 charge=0 spin=1 energy=-8201.530014933003 pbc="F F F"
O        1.72468908      -0.99555996       0.00135410      -0.00040910      -0.00028590      -0.00011984
C        0.86005166      -0.07246762      -0.00445258      -0.00014489      -0.00002290      -0.00085613
C        1.14778744       1.37917731      -0.00368433       0.00062517      -0.00008924      -0.00062747
N       -0.32533905      -0.68089928       0.00164251       0.00012955       0.00026401       0.00038692
C       -1.53723081      -0.12551033      -0.00052152       0.00053805       0.00001728      -0.00035315
N       -2.59739865       0.32638685      -0.00268888       0.00055123      -0.00037777      -0.00069946
H        0.55753286      -1.64203607       0.00857552      -0.00009950       0.00049923       0.00167890
H        1.54755724       1.64954397       0.97376470      -0.00072712      -0.00164970       0.00101053
H        0.25109007       1.96161515      -0.20055813       0.00038466       0.00088083       0.00145782
H        1.91334014       1.58965997      -0.74728140      -0.00084794       0.00076415      -0.00187813
