10
Properties=species:S:1:pos:R:3:forces:R:3 charge=0 spin=1 energy=-80245.75996901837 pbc="F F F"
O        2.04690122       2.00179516      -0.20459800       0.00037472      -0.00022573       0.00087410
C        0.86922798       1.73587572      -0.20241668      -0.00034808      -0.00023091       0.00000309
N        0.40232351       0.51798955       0.24178800       0.00017604      -0.00015524       0.00059444
Br      -1.43778987       0.25410691       0.17474656       0.00066842      -0.00107798       0.00093792
N        1.26265801      -1.33017599      -0.76552474       0.00113000       0.00063001      -0.00013763
O        0.41120558      -1.96637152      -1.07765634      -0.00121193       0.00057136      -0.00139658
O        1.56684541      -1.42641343       1.08688244      -0.00012430      -0.00035745      -0.00086500
H        0.09383081       2.43633648      -0.55736496      -0.00030806      -0.00067582      -0.00132492
H        1.05493799      -0.37832084       0.94439772       0.00075645       0.00043027       0.00011976
H        0.91299937      -2.02425206       1.47696600      -0.00111342       0.00109159       0.00119463
