24
Properties=species:S:1:pos:R:3:forces:R:3 charge=0 spin=1 energy=-26934.661945227755 pbc="F F F"
O       -4.16450839      -0.48310029      -1.21728009      -0.00016520      -0.00012957       0.00076259
N       -3.94243948      -0.94159510       0.06087726       0.00136935      -0.00022210      -0.00029580
O       -3.13606925      -1.93741333      -0.05073688      -0.00101722       0.00124342       0.00030306
C       -1.79699655       0.02985958       0.44284588      -0.00018025      -0.00117929       0.00044532
S       -0.73051570       1.37659532       0.83061548      -0.00053680       0.00093929      -0.00050619
O       -0.94685084       2.40381417      -0.21644448       0.00006200      -0.00070675       0.00054566
C        0.80595981       0.52962031       0.42444724      -0.00071263       0.00018228      -0.00043485
C        1.36175405      -0.37157285       1.32096246       0.00034523      -0.00084484       0.00096604
C        2.54916810      -1.00252623       0.99584111      -0.00040771       0.00007286       0.00012858
C        3.19720127      -0.73385423      -0.21008822       0.00087823      -0.00028615       0.00022191
C        4.50361377      -1.40256196      -0.53780922      -0.00093611       0.00109036       0.00018522
C        2.62302899       0.18325403      -1.08269337      -0.00059957       0.00079494      -0.00054021
C        1.42891460       0.82119151      -0.77353303       0.00042938      -0.00008493      -0.00044451
H       -4.76757482       0.26461645      -1.08718301      -0.00020446      -0.00006194      -0.00044809
H       -2.15935277      -1.56642542      -0.24729118       0.00034991      -0.00010682      -0.00036543
H       -2.16620155       0.10294033      -0.56566104       0.00019264      -0.00014879       0.00032066
H       -2.11509355      -0.58416802       1.26212717       0.00003037       0.00069935      -0.00057383
H        0.86992704      -0.57992787       2.26458430      -0.00007688      -0.00019366       0.00004025
H        2.98523414      -1.71136722       1.68998755       0.00028340      -0.00050614       0.00066010
H        4.71687414      -1.35151484      -1.60468280       0.00001550       0.00017540      -0.00152691
H        5.32795307      -0.91848601      -0.00994848       0.00084356       0.00067266       0.00083745
H        4.49539332      -2.45113966      -0.23998025      -0.00004318      -0.00199844       0.00058895
H        3.11677103       0.40635801      -2.02114982       0.00023896       0.00029821      -0.00050864
H        0.97660956       1.54481333      -1.43985657      -0.00015839       0.00030035      -0.00036132
