16
Properties=species:S:1:pos:R:3:forces:R:3 charge=0 spin=1 energy=-23855.004672583626 pbc="F F F"
C        2.26204401       0.46109264       0.88417609       0.00026587       0.00038284      -0.00051016
C        1.69732506      -0.15248682      -0.36601931      -0.00007521      -0.00059015      -0.00009386
O        2.37189043      -0.81094852      -1.12101758      -0.00124104      -0.00044916      -0.00112749
C        0.27987499       0.11735480      -0.79044559      -0.00006138      -0.00055628       0.00063660
Cl      -0.44812709      -1.47927624       0.89707143       0.00031230       0.00031361      -0.00076804
C       -0.49159321       1.24995109      -0.54883306       0.00058444       0.00086700       0.00004623
N       -0.30992690       2.07113382       0.55001118      -0.00030157       0.00031401      -0.00013691
N       -2.06813003       0.11459476      -0.07956905       0.00108864      -0.00144326       0.00075040
O       -2.63801095      -0.38359454      -0.91492198      -0.00137236       0.00061584       0.00007395
H        3.28658885       0.11789681       0.99871477       0.00059472      -0.00019823       0.00200496
H        1.67625641       0.16791947       1.75436376      -0.00044410       0.00013381      -0.00040781
H        2.24273635       1.54924139       0.80092624      -0.00068143      -0.00017156      -0.00011557
H        0.02061692      -0.45026888      -1.67516682       0.00044726       0.00057584      -0.00049068
H       -1.02384282       1.68652860      -1.38505573       0.00101881      -0.00082766      -0.00114135
H       -1.03249315       2.76150627       0.67668653      -0.00139835      -0.00079829       0.00094346
H       -0.12612886       1.56373537       1.40548912       0.00126346       0.00183186       0.00033642
