17
Properties=species:S:1:pos:R:3:forces:R:3 charge=0 spin=1 energy=-21944.16263876421 pbc="F F F"
C       -1.10155383       0.47950577       0.32450554       0.00003062       0.00071965      -0.00075651
Cl      -2.29463963      -0.71432689       0.00364407       0.00097481       0.00017368      -0.00053678
C       -0.11746022       0.83551833      -0.62518297       0.00227417      -0.00086906       0.00019253
C        0.40582684       2.24346417      -0.71161738      -0.00097624       0.00006845      -0.00038118
C        0.73385100      -0.06553092       0.64370374       0.00096845      -0.00045174       0.00135156
O        1.57386395       0.60444525       1.25813169       0.00009433       0.00018293      -0.00023934
O        0.92714240      -1.33570954       0.09230056      -0.00001678      -0.00005235      -0.00043103
C        2.10074473      -1.37284990      -0.71154083       0.00042221       0.00013436       0.00015770
H       -1.36913468       1.16956884       1.11794263       0.00030799      -0.00015671      -0.00055354
H       -0.24142543      -0.34614976       1.33197186      -0.00106136       0.00025688      -0.00015915
H       -0.12633185       0.23025559      -1.52176467      -0.00129831       0.00015273       0.00004369
H       -0.34392482       2.98696500      -0.43890178       0.00016695       0.00004898       0.00231737
H        1.25669336       2.33743667      -0.02878789      -0.00083224      -0.00073915      -0.00164525
H        0.74070387       2.45913346      -1.72447126      -0.00102700       0.00173960       0.00011199
H        2.19344100      -2.39600475      -1.06576161      -0.00143032      -0.00069442       0.00136418
H        2.97451855      -1.09425043      -0.12405068       0.00041725       0.00018186       0.00055649
H        2.01343477      -0.69599088      -1.56777101       0.00098540      -0.00069555      -0.00139268
