21
Properties=species:S:1:pos:R:3:forces:R:3 charge=0 spin=1 energy=-35663.09142204551 pbc="F F F"
C       -0.54868909       1.56211898      -1.42046366      -0.00021363      -0.00010209      -0.00156868
N       -0.31360571       1.05523135      -0.06472872       0.00008428      -0.00030933       0.00113220
N       -1.43730121       1.15736941       0.77709358      -0.00026427       0.00060275      -0.00094407
C       -2.70404452       0.58636153       0.29114858      -0.00008745      -0.00021228      -0.00050430
N       -2.82272326      -0.83375726       0.11715714      -0.00002858       0.00061188       0.00052990
S        0.61649639      -0.81917495      -0.06047458       0.00000362      -0.00023524       0.00055744
N        1.95148112      -1.78672861      -0.16684988      -0.00062422      -0.00216964       0.00043701
O       -0.11233946      -1.21862478      -1.23998456      -0.00152562      -0.00022604      -0.00161904
O        0.20846289      -1.00360876       1.30800635      -0.00035375       0.00123610       0.00023606
Cl       2.44412440       1.01762981      -0.23040889       0.00079687       0.00070473       0.00031579
H        0.42115571       1.65872023      -1.89909682      -0.00152070       0.00001675       0.00032854
H       -1.16023084       0.85783352      -1.97381067       0.00065803       0.00128847       0.00045985
H       -1.03682903       2.53410594      -1.35688915       0.00044589      -0.00069004      -0.00021939
H       -1.16369310       0.72062842       1.65237846       0.00049718      -0.00068396       0.00113881
H       -2.95769035       1.08637770      -0.64162515      -0.00020827      -0.00035845       0.00012165
H       -3.43438078       0.91543433       1.03057795      -0.00007922      -0.00010764      -0.00001510
H       -2.19845871      -1.18961540      -0.59466620       0.00017331       0.00001722       0.00021568
H       -2.63812257      -1.33662204       0.97540668      -0.00002632      -0.00024498      -0.00052543
H        2.62973764      -1.49932992       0.53105457       0.00118032       0.00084789       0.00165438
H        2.36081045      -1.68701364      -1.09026389       0.00081664      -0.00006255      -0.00187587
H        0.45090001       1.58862416       0.35570883       0.00027590       0.00007645       0.00014456
