15
Properties=species:S:1:pos:R:3:forces:R:3 charge=0 spin=1 energy=-10527.918641532618 pbc="F F F"
C        2.84110090       0.00361271       0.03506773      -0.00076971       0.00039827      -0.00085438
C        1.42830794      -0.01452437       0.03022043      -0.00015024       0.00018869       0.00001971
O        1.02562001      -1.20532465       0.30187018      -0.00065352      -0.00008995      -0.00009416
C        0.45622156       1.09701861      -0.16940292       0.00034778       0.00035923       0.00023635
C       -0.95457313       0.81882518       0.32874181       0.00051062      -0.00004859       0.00034985
N       -1.57503129      -0.16605542      -0.55007731       0.00071723      -0.00049010      -0.00016378
F       -2.87832747      -0.36924236      -0.01327706       0.00121772      -0.00040359      -0.00039092
H        2.26959734      -1.26023738       0.57032257       0.00026529      -0.00011809      -0.00058235
H        3.40180259       0.90874791       0.23336581      -0.00044304       0.00035445       0.00078201
H        3.25241766      -0.60603245      -0.76852174      -0.00005497      -0.00033695      -0.00060290
H        0.86935992       1.97751830       0.32753492       0.00006159       0.00094965       0.00021831
H        0.44153198       1.33385404      -1.23775078       0.00117295      -0.00124161      -0.00005948
H       -0.93816263       0.48581746       1.37109824      -0.00124924       0.00080905       0.00061559
H       -1.54629920       1.73073724       0.26339759       0.00033954      -0.00048747       0.00018595
H       -1.13823619      -1.06714481      -0.35964948      -0.00131201       0.00015700       0.00034029
