22
Properties=species:S:1:pos:R:3:forces:R:3 charge=0 spin=1 energy=-29366.19264996704 pbc="F F F"
C       -1.81454404      -1.19148359      -1.85274422      -0.00104395       0.00067602       0.00115702
O       -1.53186651      -0.04636175      -1.02820463       0.00024152       0.00088313      -0.00042139
S       -1.37572308      -0.26749171       0.55665403       0.00029941       0.00053636      -0.00016333
O       -2.11395726       0.78272695       1.18403667       0.00045791      -0.00018115       0.00006087
O       -1.70748027      -1.63696364       0.81985202       0.00055872      -0.00057469      -0.00027565
C        0.31641868       0.05232413       0.78574608       0.00004899       0.00026274      -0.00005894
C        1.23725775      -0.76780818      -0.08338529      -0.00004723      -0.00019210      -0.00046721
N        2.60843330      -0.54865717       0.36355748       0.00014284       0.00101874      -0.00081371
O        3.46843893      -1.13917822      -0.61226326       0.00051146      -0.00111719       0.00075043
N        0.13364734       2.02876642      -0.61934398       0.00020016      -0.00004647      -0.00074609
O        0.78311434       1.86054391      -1.49454690      -0.00030261       0.00061678       0.00110045
O        1.30484006       2.45589032       0.88952060      -0.00001660       0.00036082       0.00071926
H       -0.99839025      -1.91163918      -1.81471965       0.00151775      -0.00080979      -0.00066645
H       -2.73621354      -1.67085428      -1.53533585      -0.00178471      -0.00123820       0.00016157
H       -1.92108578      -0.79750238      -2.85982373      -0.00184405       0.00077419      -0.00106165
H        0.48606881      -0.15612803       1.84910300      -0.00036403      -0.00081587       0.00003815
H        1.12207307      -0.49980211      -1.14518429       0.00015367      -0.00028911      -0.00095306
H        1.02239323      -1.83619605      -0.00411753       0.00061631       0.00027925       0.00086894
H        2.81976616       0.44373671       0.30809498      -0.00015870       0.00057572      -0.00115647
H        3.97315253      -1.78035904      -0.10235976       0.00017729       0.00027325       0.00225337
H        0.77109514       1.37269877       0.96824507      -0.00003676      -0.00039860      -0.00023730
H        0.81970138       3.08025811       1.44409913       0.00067260      -0.00059369      -0.00008944
