25
Properties=species:S:1:pos:R:3:forces:R:3 charge=0 spin=1 energy=-18178.579389484337 pbc="F F F"
C        1.51433840       1.60265603       0.11833035       0.00017615      -0.00035369       0.00011931
N        1.20504528       2.77084988      -0.44863950       0.00089272       0.00106337       0.00034663
C        1.22986844       0.32350462      -0.51090661       0.00009299      -0.00025020       0.00008664
C        2.31956121      -0.67434512      -0.66347508       0.00014229       0.00146726       0.00020332
O        2.24321412      -1.64840201      -1.36159927      -0.00023324      -0.00074556      -0.00086411
O        3.40208924      -0.38596904       0.08375599       0.00121781       0.00070404       0.00001288
C        0.32340478      -0.00882731       0.86771250       0.00016530      -0.00057345       0.00048758
O        0.83980911      -0.79094564       1.68938690      -0.00059288      -0.00004514       0.00011951
C       -1.12519629      -0.12802880       0.41735735      -0.00033518       0.00077036      -0.00015169
C       -1.90263393       0.96833178       0.06894553       0.00031360      -0.00017188       0.00015104
C       -3.20616411       0.78982921      -0.37193411      -0.00042649      -0.00009713      -0.00056123
C       -3.74076377      -0.48782591      -0.45887780       0.00026249      -0.00000055      -0.00024084
C       -2.96866441      -1.58219321      -0.09455003      -0.00021344       0.00094469       0.00043401
C       -1.66518313      -1.40560480       0.34600051       0.00039894       0.00037615      -0.00075289
H        0.35720813       1.19502816       1.23443260       0.00011086      -0.00058193      -0.00015820
H        2.24226087       1.60670590       0.91961828       0.00035432      -0.00043801       0.00060682
H        1.31189315       3.63014901       0.06250274      -0.00016378       0.00006170      -0.00005435
H        0.60580030       2.78799850      -1.25719260      -0.00085723      -0.00040778      -0.00113189
H        0.61832967       0.37164656      -1.40555823      -0.00061650      -0.00018372       0.00024545
H        3.99799905      -1.14510749       0.00912369      -0.00060495      -0.00034077       0.00022445
H       -1.49954693       1.97100617       0.16787174      -0.00033623      -0.00085709       0.00056503
H       -3.80998664       1.65030157      -0.63205682       0.00021915      -0.00024697       0.00000966
H       -4.75891158      -0.62786005      -0.79780313      -0.00005187      -0.00032095      -0.00040116
H       -3.38524012      -2.57961483      -0.15073535       0.00000789       0.00039117       0.00109507
H       -1.04968083      -2.24365318       0.64458036       0.00007738      -0.00016386      -0.00039102
