16
Properties=species:S:1:pos:R:3:forces:R:3 charge=0 spin=1 energy=-12379.486903054662 pbc="F F F"
N        3.54987984      -0.86214728      -0.16663443       0.00028253       0.00054879       0.00026586
C        2.43490141      -0.72605621       0.07563920       0.00124305      -0.00043648      -0.00062363
C        1.06667102      -0.51365071       0.33444298       0.00009679      -0.00038518      -0.00043549
N        0.15935404      -0.92260994       0.97808355      -0.00121912      -0.00027222       0.00106475
C       -1.62940572       0.29387323       0.64595428       0.00112800       0.00045214       0.00031941
C       -2.01369266      -0.50683614      -0.54823201       0.00004553      -0.00096978      -0.00036786
O       -2.64087493      -1.52944876      -0.46645551      -0.00045058       0.00151231       0.00060703
C       -1.05886466       1.54679338       0.62505615      -0.00117820      -0.00055974       0.00041654
C        0.02172692       1.90067442      -0.18793894       0.00020500      -0.00041883      -0.00089883
C        0.68148869       1.01581339      -1.01953285       0.00026891       0.00063819      -0.00055646
H       -2.19298266      -0.00211223       1.52347591       0.00128204       0.00023885      -0.00072948
H       -1.77462641      -0.06906320      -1.53326321      -0.00082464       0.00074132      -0.00108136
H       -1.26478617       2.19549671       1.46830969       0.00037827       0.00049156       0.00103077
H        0.52070703       2.83572957       0.03976218      -0.00155332       0.00032035      -0.00005680
H        1.62226236       1.32275422      -1.46066999      -0.00132383      -0.00080994       0.00174881
H        0.16787188       0.24326954      -1.57065697       0.00161952      -0.00109130      -0.00070330
