15
Properties=species:S:1:pos:R:3:forces:R:3 charge=0 spin=1 energy=-10775.757608822465 pbc="F F F"
N        2.37379647      -0.10924566      -1.21207700      -0.00067847       0.00054089      -0.00018714
C        1.74717363       0.17200997      -0.22392608      -0.00095103       0.00014216       0.00020301
O        2.03726534      -1.17877804       0.77353158      -0.00115049      -0.00060164       0.00044887
C        0.84408505       1.12283369       0.47871398       0.00015574       0.00023011       0.00018447
N       -0.44852264       0.49282658       0.71503655       0.00042005       0.00000850      -0.00031998
C       -1.25407350       0.42360137      -0.49691847       0.00010149      -0.00047195      -0.00003729
C       -2.50536992      -0.29581668      -0.24166851       0.00104160      -0.00059457       0.00028299
N       -3.49113633      -0.84247860      -0.03059337      -0.00125363      -0.00009963       0.00024060
H        2.52525210      -1.18247222      -0.37538068       0.00025515       0.00068965       0.00022710
H        1.23050910      -1.70394132       0.88295648      -0.00043925      -0.00044507      -0.00028114
H        0.78804672       2.02740077      -0.14081456       0.00074520       0.00052964       0.00021162
H        1.29011645       1.38115227       1.43746585       0.00102767       0.00046424      -0.00007002
H       -0.94886848       0.98190964       1.44536125       0.00056604      -0.00060189       0.00028022
H       -1.50261082       1.40705918      -0.91756086      -0.00029201      -0.00044441      -0.00146997
H       -0.69528317      -0.11904095      -1.26298616       0.00045184       0.00065390       0.00028664
