26
Properties=species:S:1:pos:R:3:forces:R:3 charge=0 spin=1 energy=-30021.799744745098 pbc="F F F"
O       -1.50607090      -1.09795223      -1.40480802      -0.00074594      -0.00005154       0.00042584
C       -2.43975837      -0.73031408      -0.74638825       0.00006473      -0.00001041       0.00011865
O       -3.46697156      -1.52345936      -0.40912462       0.00097538       0.00032978      -0.00026459
C       -2.64336974       0.65385755      -0.17680719      -0.00133215      -0.00025926      -0.00014420
N       -1.62010803       1.54094237      -0.71124920       0.00017438       0.00026744      -0.00056953
C       -0.34592912       1.48924914      -0.17909727      -0.00136984       0.00051798       0.00000861
S        0.04859226       0.33568854       1.14974978      -0.00005890      -0.00063390      -0.00072354
O        0.24293170       1.09891995       2.40959472      -0.00037294       0.00066078       0.00126989
C        1.67555460      -0.08935624       0.52925871      -0.00046709      -0.00011268      -0.00070858
C        2.77405383       0.29974049       1.27377728       0.00064610      -0.00005161       0.00027734
C        4.04317723      -0.05663166       0.83594231       0.00048461       0.00014776       0.00017893
C        4.19574433      -0.79557992      -0.32788168       0.00021340       0.00009445       0.00027749
C        3.08040396      -1.18707126      -1.05954460      -0.00021802      -0.00002323      -0.00016407
C        1.80892681      -0.83982793      -0.63181660       0.00043601      -0.00004602       0.00006013
O       -2.05747974       2.98309825       0.23772386       0.00059797      -0.00103203      -0.00027855
H       -3.27793855      -2.40202265      -0.77188412       0.00014809       0.00020272      -0.00006046
H       -2.64031264       0.58349211       0.91425295      -0.00002000      -0.00001640       0.00041808
H       -3.62179356       1.01658797      -0.48270179       0.00068287      -0.00036109       0.00013784
H        0.44176309       1.67229508      -0.90221309       0.00023335       0.00027945       0.00006716
H        2.61618186       0.87109055       2.17967695       0.00002401       0.00016495       0.00034334
H        4.91220884       0.24232086       1.40736234      -0.00064532      -0.00017968      -0.00040968
H        5.18594526      -1.07345569      -0.66539236       0.00026490       0.00017983       0.00020262
H        3.20148340      -1.76909214      -1.96395594      -0.00016646      -0.00040030      -0.00048053
H        0.93015203      -1.14116253      -1.18934894      -0.00031710      -0.00015318      -0.00013356
H       -0.84108369       2.65264946       0.40554213       0.00059745       0.00038601       0.00029317
H       -2.15031331       3.71062337      -0.39734733       0.00017054       0.00010023      -0.00014180
