28
Properties=species:S:1:pos:R:3:forces:R:3 charge=0 spin=1 energy=-29269.766967141353 pbc="F F F"
C        2.59385446      -1.03072529       0.39699219      -0.00027787      -0.00016085      -0.00042355
C        1.24830014      -1.24311605      -1.20293704      -0.00064485       0.00070326      -0.00043450
C        0.04995827      -1.48187686      -0.53824949       0.00058260      -0.00058581       0.00133220
C       -0.57818664      -0.43660645       0.10530561       0.00040683      -0.00008742       0.00027612
C       -1.77786890      -0.64282895       0.97807502      -0.00016940       0.00051476      -0.00066823
C       -3.06241081      -0.70867226       0.17802771      -0.00018002      -0.00029815      -0.00005719
O       -3.84793514      -1.61396904       0.29384410       0.00128797      -0.00030963      -0.00026858
C       -3.34955467       0.37999093      -0.84705014       0.00019208       0.00002161       0.00103866
Cl      -2.93129508       2.01563551      -0.26943910       0.00009141      -0.00045966      -0.00039027
C        3.83940272      -0.82900182      -0.26660275       0.00000947      -0.00002936       0.00019215
C        4.24595416       0.42556222      -0.59913573      -0.00048499      -0.00037482       0.00177144
C        3.46474706       1.54649939      -0.21333047      -0.00037793      -0.00038337      -0.00011103
C        2.32204874       1.39281071       0.51199839      -0.00106598       0.00024097      -0.00069063
C        1.87597059       0.09168431       0.91328355       0.00021319       0.00031189      -0.00065532
O        0.77879922      -0.07489165       1.53837906       0.00085609      -0.00043480       0.00007688
H        2.37100329      -1.99871375       0.82322537      -0.00011561       0.00026549       0.00071314
H        1.77338173      -2.05896865      -1.68072742      -0.00071282       0.00102165       0.00040190
H        1.44539512      -0.26552390      -1.62767985       0.00115433       0.00077879      -0.00030622
H       -0.19293421      -2.49649276      -0.24088384       0.00106157      -0.00129517       0.00024737
H       -0.42615584       0.56576753      -0.27715156       0.00085521      -0.00025780      -0.00058752
H       -1.69343871      -1.57491980       1.53394497      -0.00101514       0.00102167      -0.00130083
H       -1.84496472       0.18204517       1.69035317       0.00037003       0.00021641      -0.00080230
H       -2.76032450       0.18870741      -1.74330085      -0.00143332       0.00035268       0.00082288
H       -4.40663867       0.36021481      -1.08989217       0.00034065       0.00011351       0.00060876
H        4.43593548      -1.69104355      -0.53888756       0.00019141       0.00074617      -0.00147790
H        5.17070506       0.57984608      -1.13921881      -0.00109330      -0.00083960       0.00098188
H        3.79711448       2.53961799      -0.49030251       0.00028912      -0.00132511       0.00001430
H        1.73641737       2.24346873       0.83773015      -0.00033071       0.00053262      -0.00030363
