26
Properties=species:S:1:pos:R:3:forces:R:3 charge=0 spin=1 energy=-13553.673873028754 pbc="F F F"
C        0.97401545      -2.06980421      -0.52324399      -0.00035244       0.00006540      -0.00028710
C        0.89974668      -0.57653466      -0.68298002      -0.00013432      -0.00022267       0.00010842
O        0.80971661      -0.00293402      -1.74670832       0.00057553      -0.00026584      -0.00010611
N        1.55014428       0.21786317       0.49542215      -0.00032925       0.00033313       0.00003674
C        1.86323106       1.59566858       0.09267642       0.00202777      -0.00011656      -0.00020191
C        2.65792830      -0.42900382       1.20141780      -0.00039462      -0.00061345      -0.00046819
O       -0.67794114      -0.29489651       0.37013447      -0.00043612      -0.00069792       0.00025741
N       -1.42571275       0.73913480      -0.24775957      -0.00011328      -0.00062774       0.00034172
C       -2.78679930       0.24813574      -0.43508434       0.00027496      -0.00016265       0.00007069
C       -3.52476083       0.16449809       0.88782850      -0.00014097       0.00053667       0.00007122
H        0.68606345      -2.39193508       0.47452740       0.00120874      -0.00009973       0.00030712
H        1.98169849      -2.42235629      -0.75466447      -0.00021383       0.00013364       0.00022135
H        0.28158588      -2.49691692      -1.24349356      -0.00030537       0.00006774      -0.00092723
H        2.63020266       1.59952655      -0.68091950      -0.00125348       0.00174896       0.00041475
H        2.21122001       2.13974820       0.96900158       0.00036958      -0.00059105      -0.00032782
H        0.96372003       2.06423637      -0.29344654       0.00010557      -0.00079284      -0.00081776
H        2.94795037       0.18839845       2.04986490      -0.00046263      -0.00065171      -0.00071718
H        3.51732347      -0.54389314       0.53782307      -0.00024304       0.00048154       0.00039953
H        2.35411687      -1.40415102       1.56994788       0.00047054       0.00005178       0.00069856
H        0.48627700       0.17847535       0.94184482      -0.00063245       0.00140986       0.00054771
H       -0.99849916       0.82688254      -1.17644632       0.00155398       0.00008353      -0.00018869
H       -2.78565430      -0.73323827      -0.92723361      -0.00011598       0.00124697       0.00003384
H       -3.28133832       0.95940903      -1.10300221      -0.00009597      -0.00102375      -0.00009342
H       -3.02089196      -0.53501596       1.55421762      -0.00123787      -0.00000724       0.00004395
H       -4.55026224      -0.17645304       0.73958826       0.00002318      -0.00027357       0.00030920
H       -3.54615062       1.14234607       1.37064759      -0.00014830      -0.00001259       0.00027318
