18
Properties=species:S:1:pos:R:3:forces:R:3 charge=0 spin=1 energy=-15906.867841216555 pbc="F F F"
O       -3.64588096      -0.52798990      -0.96630174      -0.00079290      -0.00104110       0.00106110
C       -3.00265167       0.37980220      -0.58019912       0.00075901       0.00139175      -0.00114586
N       -1.68002434       0.20371373       0.09193546       0.00106170       0.00028617       0.00000744
C       -0.96627550      -0.81655646       0.90794856       0.00010692       0.00058049      -0.00042088
C        0.40602542      -1.18069767       0.36563218       0.00018503       0.00077662       0.00095924
C        1.35272037       0.00659260       0.29108516       0.00007491      -0.00018191      -0.00010296
C        2.74427897      -0.40524820      -0.11280276      -0.00074550       0.00080083       0.00011781
O        3.12456710      -1.53451859      -0.26406173      -0.00023716      -0.00058212       0.00016785
O        3.54634695       0.66361578      -0.28464792       0.00061669       0.00003341       0.00046160
N       -1.72829820       1.49845455       0.48913960      -0.00047103       0.00096131      -0.00095672
N       -1.29260249       2.30695880       1.12993979      -0.00041692      -0.00151430       0.00073455
H       -0.92510346      -0.44921437       1.93491573       0.00001657       0.00029843       0.00064058
H       -1.63187263      -1.67854434       0.88756365      -0.00043720      -0.00096467       0.00047830
H        0.84101343      -1.95292891       1.00301381       0.00047227      -0.00067430       0.00026431
H        0.29541898      -1.62544826      -0.62432152      -0.00005625       0.00032476      -0.00123602
H        1.43267305       0.52041437       1.25433255      -0.00013715      -0.00029761      -0.00090836
H        1.01014902       0.75890827      -0.42297280       0.00010385      -0.00027085       0.00005456
H        4.41857598       0.32169639      -0.53120891      -0.00010283       0.00007292      -0.00017644
