18
Properties=species:S:1:pos:R:3:forces:R:3 charge=0 spin=1 energy=-14897.486370666928 pbc="F F F"
O       -3.40677767      -0.36063944       0.09518548      -0.00104062      -0.00079763       0.00027996
N       -2.37670318       0.37070112      -0.12859966       0.00105461       0.00105170      -0.00038032
N       -1.40367873      -0.42814231       0.00423199       0.00012627      -0.00006982      -0.00038603
C       -0.03324763      -0.10567092      -0.03772742      -0.00019558      -0.00005364       0.00059118
C        0.46109608       1.21126507      -0.04081318      -0.00018693       0.00014829      -0.00016205
N       -0.36951113       2.30154199      -0.12431245      -0.00039190      -0.00058624       0.00021297
C        1.84702528       1.39228316       0.00950102       0.00008723       0.00007173      -0.00060476
C        2.69945555       0.30814478       0.04681924      -0.00009926      -0.00006777      -0.00028864
C        2.21715615      -0.99204936       0.02624725       0.00001016      -0.00000775       0.00008750
C        0.85206140      -1.19361839      -0.02240355      -0.00016421      -0.00025646       0.00049779
O        0.40098916      -2.47488040      -0.04231349       0.00016515       0.00016978      -0.00017795
H       -2.36870352      -1.23806722       0.25928198       0.00029830      -0.00040835       0.00001081
H       -1.35904329       2.17715069      -0.00086367       0.00028462       0.00014879      -0.00029717
H        0.01373016       3.18322361       0.16711380       0.00023189       0.00047422       0.00025302
H        2.23903839       2.40147297       0.00815520       0.00011572      -0.00002428       0.00024993
H        3.76808811       0.47649902       0.08181495      -0.00016066      -0.00008827       0.00015683
H        2.87315371      -1.85006832       0.04036430       0.00027233       0.00014936      -0.00015088
H       -0.55140884      -2.48364605      -0.18055181      -0.00040713       0.00014635       0.00010785
