11
Properties=species:S:1:pos:R:3:forces:R:3 charge=0 spin=1 energy=-22288.980378851502 pbc="F F F"
O       -1.47775250      -0.82764106      -0.97842853      -0.00007435      -0.00088059      -0.00013181
N       -1.34170958       0.40549574      -0.50209546      -0.00099262       0.00046929       0.00012072
C       -0.34007511       0.40756998       0.57840221       0.00056424       0.00098155      -0.00107084
C        1.02999212       0.53099552      -0.04252500       0.00043727      -0.00013508      -0.00218550
O        1.30445351       0.69261591      -1.17480565      -0.00055760      -0.00008947       0.00240835
Cl       2.28765116       0.42354469       1.21976635       0.00013341       0.00018138      -0.00004008
O       -2.74000727       0.21748821       0.44308094      -0.00060631       0.00110028      -0.00037936
H       -0.38795626      -0.51578610       1.15769488      -0.00013306      -0.00188373       0.00090426
H       -0.49887593       1.26784501       1.22766904      -0.00003894       0.00082634       0.00031240
H       -2.51481569      -0.74799088      -0.20819274       0.00073326      -0.00021084      -0.00053021
H       -3.39789445       0.75734299      -0.02163604       0.00053475      -0.00035914       0.00059210
