49
Properties=species:S:1:pos:R:3:forces:R:3 charge=0 spin=1 energy=-31282.39152681496 pbc="F F F"
N        0.14415985      -0.58813037       0.63117295       0.00026448       0.00028926       0.00017831
C       -0.58741230      -0.32418476      -0.43858364       0.00023842       0.00077730      -0.00055288
O       -0.47252107      -0.23692881      -1.63154291      -0.00006885      -0.00009388       0.00026128
N       -1.92935262      -0.08321405       0.32805341       0.00043685       0.00058554      -0.00020749
C       -2.98803259      -1.03105017       0.07417171      -0.00009241       0.00067785      -0.00079595
C       -4.25671155      -0.78418566       0.58451750       0.00011249      -0.00028630      -0.00019046
C       -5.26172528      -1.72009506       0.40629228      -0.00026171      -0.00014303      -0.00036207
C       -5.00652782      -2.90071376      -0.27740640      -0.00073647      -0.00021759      -0.00092702
C       -3.73852820      -3.13852035      -0.78326783      -0.00023099      -0.00028861      -0.00008914
C       -2.72409590      -2.20712224      -0.61282132      -0.00038211       0.00010108       0.00030259
C       -2.29763752       1.31511607       0.28260414       0.00084941       0.00061570      -0.00008475
C       -2.07722673       2.10632690       1.39720027       0.00042824       0.00006735      -0.00010379
C       -2.38426487       3.45900619       1.34359876       0.00071665      -0.00009777      -0.00045273
C       -2.90695174       4.00600697       0.18162625       0.00011783      -0.00012118      -0.00034265
C       -3.11993907       3.20294112      -0.93181228       0.00067931      -0.00018397      -0.00000201
C       -2.81380153       1.85261732      -0.88742600       0.00018264      -0.00005915      -0.00033621
C        1.53618490      -0.82659049       0.59905132       0.00017842      -0.00016649       0.00001060
C        2.01951601      -1.98887845       1.18322187      -0.00005337      -0.00003054      -0.00060739
C        3.37761474      -2.25087570       1.20858139       0.00025816      -0.00036222      -0.00023956
C        4.28504666      -1.36240777       0.64721231       0.00014918      -0.00023293      -0.00067652
C        5.76405141      -1.64627411       0.67828196       0.00071581       0.00002409       0.00089067
C        3.78697556      -0.19459339       0.06622678      -0.00012065      -0.00023664      -0.00049493
C        4.76614717       0.77101336      -0.55287130      -0.00038998       0.00054964      -0.00077538
C        4.83599096       0.77781439      -2.05842768       0.00008104       0.00011301      -0.00058380
O        5.47968426       1.46972522       0.12694538      -0.00152065      -0.00006272      -0.00138577
C        2.42361590       0.10233437       0.04339950      -0.00003471       0.00002757       0.00084188
C        1.91754710       1.40613114      -0.51520389      -0.00071117      -0.00011250       0.00079753
H       -1.05828852      -0.37918274       1.20305687       0.00018085       0.00109675       0.00005393
H       -4.45490331       0.13737198       1.11625025       0.00057989       0.00003157      -0.00036947
H       -6.24826475      -1.52427151       0.80532130       0.00004249       0.00068296       0.00039054
H       -5.79397835      -3.62930932      -0.41705692      -0.00036972      -0.00115275       0.00024124
H       -3.53134367      -4.05326971      -1.32275453       0.00035810      -0.00058983       0.00015115
H       -1.74232036      -2.39173659      -1.02632833       0.00026999      -0.00036811       0.00210508
H       -1.66853499       1.66452771       2.29766367       0.00100280       0.00030879       0.00021016
H       -2.21462234       4.08241200       2.21129619       0.00053071      -0.00079776      -0.00033987
H       -3.14651357       5.06039426       0.14066791      -0.00111371      -0.00025843       0.00103756
H       -3.52053648       3.63127356      -1.84114652       0.00005932      -0.00005082       0.00025576
H       -2.95860433       1.21495039      -1.74970376      -0.00102953      -0.00026107      -0.00023331
H        1.31208103      -2.68615788       1.61419093      -0.00001083      -0.00016766      -0.00097029
H        3.74112673      -3.16265953       1.66727232      -0.00140048      -0.00076566       0.00012334
H        6.19942381      -1.62718849      -0.32370386       0.00008808       0.00164738       0.00051753
H        5.95623228      -2.62949058       1.10501051      -0.00019434      -0.00088524      -0.00024677
H        6.29305547      -0.90082004       1.27280557       0.00014626       0.00064714       0.00133692
H        5.47537326       1.58742869      -2.40213521       0.00025643       0.00010576      -0.00003427
H        3.83867851       0.86036739      -2.49140708      -0.00023066       0.00020675       0.00029677
H        5.24448526      -0.18034393      -2.39064684      -0.00085140      -0.00073948       0.00015434
H        2.69944790       2.16411974      -0.53300963      -0.00000872      -0.00127685       0.00111847
H        1.10056637       1.78851585       0.09912325      -0.00020930       0.00038174      -0.00090723
H        1.51981431       1.28113085      -1.52406060       0.00109796       0.00107187       0.00103623
