41
Properties=species:S:1:pos:R:3:forces:R:3 charge=0 spin=1 energy=-38565.17457993339 pbc="F F F"
N        0.66837648       0.89696400       0.56182363      -0.00004154       0.00061300       0.00008699
C       -0.05416903       0.50240119      -0.47465597       0.00065935      -0.00150711       0.00023224
O        0.05435547       0.37325184      -1.66447326       0.00126248       0.00006592       0.00082718
N       -1.33174364       0.13006539       0.33607240      -0.00006695      -0.00163315       0.00146489
C       -1.50060313      -1.30777409       0.36688869      -0.00090694      -0.00139409       0.00115602
C       -1.12078826      -2.00469274       1.50154020       0.00027303      -0.00043930       0.00096483
C       -1.22901514      -3.38852021       1.51832727       0.00046283      -0.00004536      -0.00058469
C       -1.71391682      -4.05958399       0.40614600      -0.00047882       0.00049064      -0.00075343
C       -2.08831935      -3.34964110      -0.72780927      -0.00015837      -0.00003302      -0.00106131
C       -1.98101056      -1.96869298      -0.75412590      -0.00097939      -0.00031869       0.00032271
C       -2.51696094       0.90887730       0.06728947      -0.00002041      -0.00111284       0.00008668
C       -2.43803904       2.06481850      -0.69517582       0.00130148      -0.00060327      -0.00032856
C       -3.57681127       2.83593589      -0.88152408       0.00142921       0.00045106       0.00032078
C       -4.78430866       2.45823708      -0.31637607       0.00025061       0.00053147      -0.00035288
C       -4.85332465       1.29876983       0.44359229      -0.00117137       0.00052329       0.00023745
C       -3.72335692       0.52239862       0.63798916      -0.00126440      -0.00044330       0.00035161
C        2.02341859       1.28368168       0.47725438      -0.00022484       0.00020794      -0.00036499
C        2.38845348       2.51150847       1.02101479       0.00046073      -0.00053872       0.00060037
C        3.70400906       2.93548545       0.98320824       0.00001941       0.00006665      -0.00127050
C        4.66813092       2.13106871       0.39204870      -0.00042965      -0.00052108       0.00094875
C        4.31066401       0.90233604      -0.13639409      -0.00046196      -0.00006878       0.00083454
C        2.99507950       0.45217858      -0.09180547      -0.00068787       0.00090994      -0.00140842
C        2.59971531      -0.88616485      -0.65421846       0.00002764       0.00100302      -0.00002029
Cl       3.86969380      -2.13701931      -0.47682755      -0.00110030       0.00046354       0.00017455
H       -0.48416255       0.57695016       1.17629941      -0.00014797       0.00033946       0.00096556
H       -0.74306398      -1.46661481       2.36231564      -0.00013554       0.00193048       0.00036554
H       -0.93379959      -3.93897803       2.40153685       0.00199623       0.00068062      -0.00111352
H       -1.79762363      -5.13824097       0.41993944      -0.00010778       0.00054404      -0.00051799
H       -2.45902468      -3.87404274      -1.59854931      -0.00002729      -0.00083861      -0.00110885
H       -2.25316752      -1.40074032      -1.63421595      -0.00089819       0.00005204       0.00019274
H       -1.50344684       2.35580690      -1.15424840       0.00170060       0.00091547      -0.00064352
H       -3.51428105       3.73528412      -1.47975534       0.00025863       0.00054373      -0.00098175
H       -5.66915756       3.06174962      -0.46873542       0.00009137       0.00161892       0.00058692
H       -5.79103750       0.99530137       0.88999890      -0.00145308      -0.00199021      -0.00001262
H       -3.77513173      -0.38302256       1.22859415      -0.00144324      -0.00017114       0.00129006
H        1.61616611       3.12512558       1.46733926       0.00168776       0.00075151      -0.00168414
H        3.97506046       3.89285918       1.40899831      -0.00045675       0.00014993      -0.00075642
H        5.69959946       2.45519587       0.35006189      -0.00136732      -0.00013682       0.00000386
H        5.06669030       0.26560369      -0.57577663      -0.00104389       0.00009862       0.00043417
H        2.36882440      -0.81956412      -1.71480488       0.00182861      -0.00001734      -0.00001161
H        1.72418669      -1.27757225      -0.14378717       0.00136370      -0.00113851       0.00052706
