25
Properties=species:S:1:pos:R:3:forces:R:3 charge=0 spin=1 energy=-31685.37805772955 pbc="F F F"
O       -3.93502399       0.81151676      -1.63492405       0.00066498      -0.00041010      -0.00011588
N       -3.09091269       0.10046254      -1.65420001      -0.00096617       0.00051992      -0.00016104
C       -1.24925396       0.63361096       0.07612452       0.00027189       0.00061775       0.00049321
C       -1.33411192       1.59263629       1.21174554       0.00024317       0.00045152      -0.00006173
F       -0.18100364       2.39645343       1.33528579      -0.00168872      -0.00083270       0.00064788
S       -0.22886608      -0.75456807       0.31691310      -0.00042110       0.00003086       0.00044002
O       -0.62279554      -1.73848491      -0.68012706      -0.00109744       0.00028308       0.00012954
O       -0.29691456      -1.11666559       1.71134936       0.00053910      -0.00029160       0.00010010
C        1.44594004      -0.32278891      -0.06148391      -0.00031185       0.00008561      -0.00015029
C        1.95945288      -0.62000505      -1.31439774       0.00009204       0.00029041      -0.00006834
C        3.27531967      -0.28773004      -1.59722683       0.00003779       0.00012159      -0.00019732
C        4.05542085       0.33691767      -0.63396947       0.00010711       0.00018467      -0.00017432
C        3.52841468       0.62859237       0.61727114      -0.00047358       0.00031704      -0.00034106
C        2.21508192       0.29977885       0.91073928      -0.00024755       0.00026340       0.00013574
O       -3.31458218      -1.02018971      -0.18065277       0.00092302      -0.00066142      -0.00057838
H       -0.95790263       1.10603630      -0.86202530      -0.00028721      -0.00169806      -0.00081477
H       -2.16455224       2.28821096       1.06531187       0.00082703       0.00056505       0.00059669
H       -1.45894675       1.06980070       2.15913745       0.00045428       0.00011790      -0.00068393
H        1.33566755      -1.12378607      -2.03979315       0.00072083       0.00011698       0.00011391
H        3.69312570      -0.52320384      -2.56711902      -0.00022196      -0.00015168      -0.00009223
H        5.08314362       0.59321945      -0.85742861       0.00018233      -0.00024867       0.00081679
H        4.14249846       1.11018578       1.36657897       0.00045932      -0.00020720      -0.00051334
H        1.78700030       0.51497708       1.87988165       0.00023909      -0.00006574       0.00028406
H       -2.50143882      -0.30320323       0.11853866       0.00052123      -0.00022270      -0.00030741
H       -2.76774067      -1.79858372      -0.40052940      -0.00056814       0.00082387       0.00050205
