22
Properties=species:S:1:pos:R:3:forces:R:3 charge=0 spin=1 energy=-15507.514930329906 pbc="F F F"
C       -3.56584110      -0.36986168      -0.08075591      -0.00056602      -0.00040212       0.00155462
O       -2.23625702      -0.17989500       0.34964860       0.00059576       0.00048466       0.00104492
C       -1.33043467      -0.15009226      -0.73157876       0.00022571      -0.00039265       0.00028430
N       -0.00882855       0.00092197      -0.21719709      -0.00075495      -0.00031063       0.00009203
C        0.53854884      -1.06162187       0.58031158      -0.00034208       0.00009855       0.00006647
O        1.46885420      -1.85654175      -0.10379798       0.00078612       0.00074223      -0.00014623
C        2.73642145      -1.23374628      -0.25544995      -0.00028110      -0.00081703       0.00046726
N        0.03866692       1.70295849       0.66953174       0.00026468      -0.00006602       0.00024616
O        0.64239083       1.64496731       1.61644102      -0.00037157       0.00029389      -0.00041388
O        1.39034723       1.83793698      -0.85758313       0.00021587      -0.00048064       0.00034967
H       -4.19551796      -0.38173211       0.80527400       0.00007706       0.00057089      -0.00003760
H       -3.88982258       0.44442074      -0.73861254      -0.00077648       0.00031586      -0.00097899
H       -3.67990074      -1.31958466      -0.61530596       0.00041474      -0.00130252      -0.00081832
H       -1.54761363       0.70324614      -1.38666534      -0.00003947       0.00027965      -0.00070673
H       -1.41878340      -1.07391898      -1.32215199       0.00002041      -0.00012453      -0.00029129
H        1.01496313      -0.60609101       1.46601965       0.00011153      -0.00003283      -0.00042350
H       -0.26074030      -1.72082792       0.91659444       0.00031385       0.00081081      -0.00008950
H        3.36796966      -1.93649255      -0.79367138      -0.00038911      -0.00001087      -0.00024393
H        3.18119850      -1.02802451       0.72488157       0.00035393      -0.00151511      -0.00058827
H        2.67058263      -0.29817029      -0.81482892      -0.00044650       0.00119617       0.00100692
H        0.71141652       0.68791896      -0.81355052       0.00053818       0.00018641      -0.00004702
H        1.09098004       2.48908030      -1.49980312       0.00004947       0.00047578      -0.00032707
