18
Properties=species:S:1:pos:R:3:forces:R:3 charge=0 spin=1 energy=-15442.462392928292 pbc="F F F"
O       -2.37220067      -1.95340912       0.40267146       0.00173717       0.00096159      -0.00053354
C       -2.29637412      -0.75866934       0.31658948      -0.00173646      -0.00167188      -0.00010904
C       -1.57872988      -0.04414815      -0.81131742      -0.00044539       0.00064251       0.00139244
N       -1.15885866       1.29012929      -0.45797362       0.00026771       0.00041680      -0.00010879
C       -0.01090964       1.58650386       0.23466573       0.00025294      -0.00039237       0.00010601
O        0.39661216       2.73053348       0.31233993      -0.00005245       0.00050732       0.00083263
C        0.71743220       0.42787747       0.83573761       0.00024921      -0.00017233       0.00020819
N        1.85725932      -1.50690253       0.24971967      -0.00070409       0.00067699      -0.00073113
O        2.83102102      -1.51506595       0.78147626       0.00092647      -0.00021252       0.00091712
O        1.87903202      -0.40585322      -1.36645222       0.00082898       0.00025022       0.00009556
H       -2.76067222      -0.08761157       1.06852368      -0.00140382       0.00010143       0.00052382
H       -2.28561810       0.02173911      -1.64201610       0.00089617      -0.00123071      -0.00028949
H       -0.75312288      -0.67032659      -1.15768651      -0.00027119       0.00183948       0.00089885
H       -1.57246417       2.07826952      -0.92727046       0.00055157      -0.00007449      -0.00048392
H        1.48643306       0.80284423       1.50787925       0.00059244       0.00113477      -0.00061022
H        0.05495724      -0.26513393       1.35213343       0.00070283      -0.00111196      -0.00186676
H        1.30603144       0.07101735      -0.38817514      -0.00115517       0.00003241      -0.00140256
H        2.73051187       0.04850609      -1.43145503      -0.00123708      -0.00169729       0.00116056
