20
Properties=species:S:1:pos:R:3:forces:R:3 charge=0 spin=1 energy=-25497.600074757873 pbc="F F F"
O       -0.38925387       0.25722431       1.81571030       0.00018287      -0.00074760       0.00007549
C       -0.67585026      -0.07586800       0.60589619      -0.00007772       0.00018787      -0.00015079
O        0.11976983      -0.77340972      -0.13635586      -0.00005204       0.00061547      -0.00081560
C        1.31682075      -1.31120381       0.48288096      -0.00045030      -0.00090087       0.00027860
C        2.41604942      -0.28528327       0.54613878      -0.00112676       0.00036579       0.00094674
O        2.81704407      -0.00619877      -0.78091455      -0.00135588      -0.00010441      -0.00018076
N        3.82119261       1.00583063      -0.74053876      -0.00131010      -0.00142238       0.00123973
C       -2.01368195       0.36323004       0.31542642      -0.00028952       0.00042182       0.00123811
C       -2.15281344       1.83457882      -0.03906096       0.00110178       0.00072545      -0.00058598
Cl      -2.89206983      -0.66585121      -0.82698282       0.00232338      -0.00072708      -0.00034118
H       -1.58051157       0.44871298       1.80672365       0.00031843       0.00008302       0.00166158
H        1.06531767      -1.65754919       1.48410748      -0.00007425      -0.00221795      -0.00059758
H        1.59802024      -2.14776412      -0.15218371       0.00084504       0.00060895      -0.00166964
H        3.25063312      -0.69807931       1.12376766      -0.00064934       0.00113511       0.00107795
H        2.07134967       0.62307049       1.04624916       0.00110646       0.00057480       0.00102369
H        4.59104254       0.61265578      -1.27391937      -0.00089156       0.00076294       0.00039199
H        3.44013067       1.76117610      -1.30362818      -0.00088540       0.00017047      -0.00197950
H       -1.52914639       2.44802284       0.61331316       0.00073341       0.00126817       0.00009733
H       -3.18736348       2.14673096       0.09471178       0.00176961       0.00018103      -0.00004916
H       -1.86996980       2.03061442      -1.07771134      -0.00121829      -0.00098051      -0.00166091
