17
Properties=species:S:1:pos:R:3:forces:R:3 charge=0 spin=1 energy=-38287.51321637248 pbc="F F F"
O       -4.50036970      -1.29236295       1.03486228      -0.00013636      -0.00091468       0.00087238
N       -3.49762569      -0.89291927       1.28102644       0.00054430       0.00025033      -0.00165767
C       -2.07313474      -0.31063968      -0.72346062       0.00047846      -0.00007484      -0.00011832
S       -0.64960887      -0.28728981       0.31278726       0.00033102      -0.00019688      -0.00070770
O       -0.89483284       0.72298455       1.40088644       0.00014049       0.00024250       0.00094097
C        0.48185650       0.55729807      -0.82958143      -0.00031053       0.00036345      -0.00056826
O        1.77722653       0.68088828      -0.24408858       0.00103542      -0.00063794       0.00018551
C        2.52905249      -0.41689220      -0.32250726      -0.00037240       0.00161867       0.00100450
O        2.23410115      -1.44790695      -0.83030333      -0.00033375      -0.00102554      -0.00178809
Cl       4.06376197      -0.11108586       0.43934462      -0.00037186       0.00005964       0.00066488
O       -3.56382143       0.93303507       1.04187732      -0.00041267       0.00104125      -0.00047101
H       -2.03419975       0.40860316      -1.54653858      -0.00029219      -0.00010515       0.00010797
H       -2.25322109      -1.31702580      -1.09614593      -0.00034130      -0.00079200       0.00041846
H        0.11549532       1.57329726      -0.95911888       0.00019171      -0.00039803       0.00012858
H        0.51793107       0.00495107      -1.76619545       0.00012457       0.00004639       0.00020937
H       -3.02310041       0.50970273       0.13517727      -0.00074060       0.00011863       0.00055596
H       -2.75062050       1.19979233       1.52772843       0.00046553       0.00040449       0.00022250
