22
Properties=species:S:1:pos:R:3:forces:R:3 charge=0 spin=1 energy=-85660.83097716157 pbc="F F F"
C       -0.83356735      -0.88885812      -1.03913128      -0.00034695       0.00004508       0.00083487
C       -2.08496007      -1.59058498       0.52833571      -0.00077567      -0.00004062       0.00055763
C       -3.01156902      -2.51795643      -0.17219856      -0.00060834      -0.00075650      -0.00022056
O       -1.68938306      -1.45491110       1.60614504       0.00007505       0.00011319      -0.00080524
C        0.57329782      -1.00854416      -0.90795531      -0.00077441       0.00094970       0.00030672
C        1.24812742      -0.03936737      -0.23964662      -0.00002800      -0.00023379      -0.00036808
Br       3.11840973      -0.17695354       0.02448554       0.00024347       0.00149289      -0.00082020
C        0.58933332       1.11881405       0.23150866       0.00079452       0.00045219       0.00025750
C       -0.75833475       1.28109305       0.08091950       0.00028666       0.00015606       0.00055578
O       -1.32100154       2.39211248       0.61366280       0.00155619       0.00103880       0.00040310
C       -2.44452431       2.95661631      -0.06495141       0.00002629      -0.00068400       0.00175365
C       -1.54481511       0.22473493      -0.50070622       0.00042888       0.00105243       0.00098741
O       -2.81702990       0.12527564      -0.31774035      -0.00004953       0.00047517       0.00108981
H       -1.33892787      -1.51971697      -1.75554301      -0.00005408      -0.00031926       0.00020663
H       -3.87914403      -2.62936259       0.47831922      -0.00093560      -0.00019614      -0.00099771
H       -3.31714110      -2.12651397      -1.13093114       0.00068373      -0.00124252      -0.00080510
H       -2.50308807      -3.47799899      -0.27089848      -0.00127101      -0.00088025       0.00042003
H        1.09009749      -1.85868202      -1.33057445      -0.00000945      -0.00021262       0.00007834
H        1.14537065       1.89165198       0.74556953       0.00003741       0.00011210      -0.00052881
H       -3.34093312       2.36462227       0.09699646       0.00033616      -0.00136202      -0.00187850
H       -2.56236421       3.95423931       0.34991722       0.00000203      -0.00002748       0.00058274
H       -2.24557291       3.03127022      -1.13620284       0.00038260       0.00006755      -0.00161014
