14
Properties=species:S:1:pos:R:3:forces:R:3 charge=0 spin=1 energy=-22351.56974809486 pbc="F F F"
N        1.54092916      -1.71865979       0.47896853      -0.00009740       0.00077671      -0.00035545
C        1.09880609      -0.61591770      -0.04340812      -0.00003942      -0.00042633       0.00014862
O        1.50010965      -0.56167636      -1.25995832       0.00029074      -0.00014577      -0.00006719
C        0.29480334       0.49093231       0.57865030      -0.00011939      -0.00008640       0.00001688
C        1.13406582       1.76141153       0.68948728       0.00010813      -0.00016241      -0.00015096
C       -0.95030470       0.73414907      -0.26038893      -0.00008121       0.00002664      -0.00024014
O       -1.27035714       1.75115079      -0.76232688       0.00000419       0.00025368       0.00000364
Cl      -1.97377353      -0.71918643      -0.38869775      -0.00012973      -0.00025799       0.00004377
H        1.35139399      -2.03822687       1.41630950       0.00023415      -0.00027496      -0.00028700
H        1.96410052      -1.69953044      -0.77731466      -0.00014310      -0.00003185       0.00034527
H       -0.05370882       0.15902530       1.55878365       0.00003534       0.00039317       0.00047402
H        1.46397848       2.07724284      -0.29807518      -0.00004275       0.00020762       0.00035482
H        2.00893693       1.57533271       1.31103718      -0.00034802       0.00001116      -0.00000963
H        0.54707023       2.56248303       1.13406341       0.00032843      -0.00028322      -0.00027654
