16
Properties=species:S:1:pos:R:3:forces:R:3 charge=0 spin=1 energy=-15166.109190524927 pbc="F F F"
O       -1.50577773      -0.01524446      -1.04021040       0.00013947      -0.00022810      -0.00129057
C       -2.14262925      -0.46216151       0.78758916      -0.00059767       0.00101008      -0.00067944
C       -0.86450805      -0.06507675       0.20963785      -0.00027409      -0.00055053      -0.00032358
F       -3.47384501       0.82212336      -0.25652519       0.00069389       0.00060989       0.00114465
C        0.23182826      -1.10636262       0.24424587       0.00011178      -0.00048666       0.00044540
O        1.35123606      -0.68394829      -0.53991199      -0.00056190       0.00056642      -0.00008358
C        2.16167306       0.18232462       0.06293318       0.00005908       0.00037956       0.00028518
O        2.03066256       0.62266840       1.17584803      -0.00018845      -0.00119178       0.00082784
O        3.15779580       0.48749560      -0.77064534      -0.00029008       0.00082340       0.00042219
H       -2.54215111       0.56616849      -0.86125261      -0.00129439      -0.00023188      -0.00034041
H       -2.50698927      -1.44879316       0.53716804       0.00054944       0.00032065       0.00017464
H       -2.68108912       0.10709338       1.52658625       0.00032348      -0.00018966      -0.00093454
H       -0.50038069       0.90273269       0.56139468       0.00045905      -0.00137359       0.00054252
H        0.55372725      -1.30366632       1.26705215       0.00005655       0.00061321       0.00058851
H       -0.11906996      -2.01739691      -0.23548749      -0.00026428      -0.00057531       0.00050663
H        3.72184717       1.11438347      -0.29890219       0.00107823       0.00050427      -0.00128525
