28
Properties=species:S:1:pos:R:3:forces:R:3 charge=0 spin=1 energy=-19794.02190281647 pbc="F F F"
C       -3.21906168      -1.49327117       0.18295209      -0.00047111      -0.00000561      -0.00033054
C       -2.55791049      -0.19429755       0.61322541       0.00050003      -0.00012501      -0.00014499
C       -1.99726266       0.54899012      -0.55082871       0.00006535       0.00019107       0.00050289
O       -2.26847525       0.48860012      -1.70077429      -0.00115830      -0.00064258       0.00002348
O        0.19758131      -0.28563888      -0.27994497       0.00052536      -0.00049610      -0.00018777
C        0.62883039      -1.30093109       0.40666148      -0.00096557      -0.00074937      -0.00006509
O       -0.06554950      -2.22186284       0.79586971       0.00035237       0.00227364      -0.00042683
C        2.13444933      -1.28773985       0.71180933      -0.00053212      -0.00047982      -0.00000187
C        2.92219010      -1.10871244      -0.55134212      -0.00049550       0.00091001       0.00044588
O        3.60652623      -0.14826892      -0.80045182       0.00001197       0.00180864       0.00063728
O       -1.18626509       1.68854554      -0.13585888       0.00003928       0.00032971      -0.00066078
C        0.47670302       1.50512829       0.50472158      -0.00011522      -0.00074807      -0.00098573
C        0.47530458       1.55765469       1.81540383      -0.00045657       0.00140974      -0.00043413
C        1.34155392       2.08909748      -0.54049429      -0.00060386       0.00044233       0.00063634
H       -3.68195112      -1.97335178       1.04360810       0.00062866       0.00086286      -0.00024182
H       -2.46832104      -2.16899254      -0.22034491      -0.00112795      -0.00041731       0.00037568
H       -3.98389896      -1.31140893      -0.57093063      -0.00077276      -0.00095048       0.00050768
H       -1.76389776      -0.37941533       1.33258355       0.00037718      -0.00102458      -0.00039420
H       -3.27507998       0.49208621       1.07689259       0.00085551      -0.00049251       0.00014883
H        2.36036678      -0.46611409       1.39274174      -0.00034610      -0.00189971       0.00150893
H        2.38889700      -2.24058833       1.17468419      -0.00049482       0.00015864       0.00062747
H        2.83685139      -1.93510026      -1.28299727       0.00092445       0.00042029      -0.00141066
H       -1.05759446       2.18503795      -0.96210235       0.00101696       0.00022258       0.00031951
H        1.34714394       1.99441866       2.28397160       0.00043721      -0.00038009      -0.00120036
H       -0.31137275       1.15704858       2.43532211       0.00076847       0.00025824       0.00045245
H        1.22090910       3.17272429      -0.58472061       0.00010743       0.00106175      -0.00008292
H        2.37679369       1.84411485      -0.30288756       0.00065322      -0.00181398       0.00048665
H        1.13347995       1.64295721      -1.50994888       0.00027654      -0.00012430      -0.00010540
