32
Properties=species:S:1:pos:R:3:forces:R:3 charge=0 spin=1 energy=-19208.355372121667 pbc="F F F"
C       -1.20172421      -2.15827702      -1.26296173       0.00000077       0.00022274       0.00007997
N       -0.74691866      -1.85809146       0.09542129      -0.00038291       0.00043226       0.00017043
C       -1.65576913      -2.35047999       1.11953424      -0.00051583      -0.00033340      -0.00015203
N       -0.39329839      -0.50099026       0.32752200      -0.00033249       0.00000830       0.00009299
C        1.03082134      -0.24376698       0.18336295      -0.00041343      -0.00043992       0.00019563
C        1.80831500      -0.96433365      -0.71056243      -0.00042304      -0.00035049       0.00033351
C        3.15944649      -0.67362643      -0.82582752      -0.00041482      -0.00003526       0.00036630
C        3.73469420       0.32165769      -0.04997541       0.00030546       0.00070613      -0.00080162
C        2.95338107       1.02039418       0.85765940      -0.00023670      -0.00055591      -0.00069660
C        1.60191400       0.73791847       0.98356271       0.00001511      -0.00108909       0.00039204
C       -1.44699286       0.59882415      -0.23429594       0.00042380       0.00050242       0.00038601
O       -2.54074496       0.15764156      -0.46809434       0.00046936      -0.00022030      -0.00072287
C       -0.84079500       1.80459563      -0.92412443      -0.00002590       0.00047290       0.00008327
N       -1.77218007       2.91184003      -0.99250921      -0.00038123       0.00038383       0.00037419
O       -1.35094528       1.17469975       1.60303469      -0.00038041      -0.00098211      -0.00023186
H       -0.93205355      -3.19288669      -1.48246676       0.00138174       0.00064337       0.00102006
H       -0.69531738      -1.51490898      -1.98035830      -0.00019711       0.00018607      -0.00006389
H       -2.27635669      -2.02486244      -1.39203263       0.00014716       0.00012673      -0.00023230
H       -1.21359442      -2.19829355       2.10384360      -0.00058367       0.00034107      -0.00009690
H       -2.64094711      -1.87546839       1.07723823      -0.00001732       0.00065472      -0.00025640
H       -1.77295309      -3.42288712       0.96601639       0.00074464      -0.00088845       0.00039333
H        1.37542698      -1.76111869      -1.29557817      -0.00050213       0.00026294      -0.00034108
H        3.76523210      -1.23456235      -1.52550000      -0.00063930       0.00035684       0.00053846
H        4.78923623       0.54432732      -0.14534974       0.00090254       0.00010241       0.00050701
H        3.39575131       1.78734189       1.47964811      -0.00080031       0.00004174      -0.00148427
H        0.98368108       1.27739208       1.68979975       0.00004182      -0.00029603      -0.00014633
H       -0.57523522       1.48153716      -1.93673346       0.00098661       0.00105332       0.00091161
H        0.06964464       2.12415435      -0.43019807      -0.00054926       0.00025387      -0.00076308
H       -1.96366388       3.21580883      -0.04349839       0.00129354      -0.00176007      -0.00060690
H       -2.65295852       2.58214150      -1.37198795      -0.00002847      -0.00060548       0.00103552
H       -0.75474163      -0.04775167       1.31864638      -0.00023905       0.00014796       0.00021744
H       -2.26601437       1.14268108       1.90159474       0.00035080       0.00065696      -0.00050187
