21
Properties=species:S:1:pos:R:3:forces:R:3 charge=0 spin=1 energy=-13459.299280154764 pbc="F F F"
C        2.75741625       1.36969613       0.34407112       0.00006151       0.00039313       0.00078649
N        2.72525277      -0.03165053      -0.04954506      -0.00072233      -0.00097206      -0.00032471
O        1.40014145      -0.30749545      -0.49704417       0.00006595       0.00055484      -0.00051501
C        0.84221829      -1.31500323       0.32260493      -0.00009887       0.00016499      -0.00009865
C       -0.62625864      -1.45685891      -0.04801670       0.00026991       0.00010750       0.00005044
C       -1.37788720      -0.20427698       0.27690735       0.00055087      -0.00090774       0.00023222
N       -1.54519639       0.71210106      -0.68895576       0.00043988       0.00054769      -0.00111390
O       -1.94649710       1.94591199      -0.06911879      -0.00018655       0.00001440       0.00049648
O       -3.16228791      -0.72333214       0.04990155      -0.00004722       0.00128185       0.00055338
H        2.36205551       2.03678031      -0.42729921       0.00005970       0.00025844      -0.00085467
H        3.79321713       1.63443239       0.56044025       0.00000355       0.00033176       0.00016316
H        2.17093989       1.49984817       1.25271332      -0.00010474       0.00031182       0.00079095
H        3.28252061      -0.14729927      -0.88992890       0.00056555      -0.00031316      -0.00070024
H        0.95202234      -1.04218831       1.37822854      -0.00014345       0.00004592       0.00063342
H        1.36195775      -2.26595909       0.16843295       0.00018060      -0.00063920       0.00007901
H       -0.72380213      -1.67116211      -1.11367953      -0.00019495       0.00002223       0.00033056
H       -1.03742859      -2.29048921       0.52153349      -0.00005984       0.00000935      -0.00013778
H       -1.38235210       0.13629706       1.30874466      -0.00012937      -0.00032317       0.00046132
H       -1.58175231       2.60152629      -0.67053434       0.00010340       0.00039348      -0.00038551
H       -2.64313933       0.06453159      -0.82350044      -0.00024597       0.00022443      -0.00006857
H       -3.39038031      -1.63698977      -0.16761526      -0.00036764      -0.00150654      -0.00037837
