20
Properties=species:S:1:pos:R:3:forces:R:3 charge=0 spin=1 energy=-25497.938088688647 pbc="F F F"
C        2.83051930       0.70213203      -0.39413690      -0.00042767      -0.00054055      -0.00085588
N        2.61888969      -0.74077591      -0.27619607      -0.00032308       0.00041852      -0.00046158
O        1.21274777      -0.99677991      -0.49538840      -0.00024700       0.00022475       0.00022754
C        0.48451119      -0.84079675       0.61451715      -0.00030305      -0.00023415       0.00056164
O        0.88685185      -0.53452918       1.69812208      -0.00131772      -0.00001592       0.00045019
C       -0.97699123      -1.15588179       0.36899134       0.00007425      -0.00000249       0.00008479
C       -1.82468733      -0.17498271       1.11023220       0.00050048       0.00000550       0.00038042
O       -2.58492213       0.01038023      -0.81870255       0.00046367      -0.00083691       0.00081053
C       -1.56317878      -0.98870530      -1.03300189       0.00049620       0.00044200       0.00043407
Cl      -0.74587066       1.99857037      -0.07944365       0.00065798       0.00103307      -0.00040929
H        2.39574046       1.12499038      -1.30295434      -0.00026646       0.00063820       0.00007431
H        2.39994839       1.19783789       0.47169020       0.00021736      -0.00096940      -0.00012169
H        3.90983634       0.85513331      -0.39146068      -0.00021853      -0.00020749      -0.00028212
H        3.00442578      -1.19581445      -1.09689516       0.00049062       0.00033218       0.00077826
H       -1.14906413      -2.15336690       0.79253694      -0.00040343      -0.00025328      -0.00013124
H       -1.35387705       0.56021253       1.74051130      -0.00092437       0.00141018       0.00103609
H       -2.85597707      -0.42235802       1.31066985       0.00110447      -0.00060577      -0.00015517
H       -2.05029050      -1.88635276      -1.40369977      -0.00014176       0.00015609      -0.00089927
H       -0.82202549      -0.64427428      -1.74885828      -0.00012687       0.00009522      -0.00196378
H       -2.13841640       0.89398120      -0.92055337       0.00069513      -0.00108986       0.00044207
