26
Properties=species:S:1:pos:R:3:forces:R:3 charge=0 spin=1 energy=-29216.28916431866 pbc="F F F"
C        3.30764600      -1.45127753      -0.69235302      -0.00073748       0.00039325      -0.00145306
C        2.26121129      -0.35725847      -0.83785129       0.00031667       0.00069037      -0.00022023
C        2.12731117       0.43894963       0.40589399       0.00017129      -0.00019326      -0.00008892
O        2.62784525       0.28277540       1.46830835       0.00035137       0.00011354       0.00059955
O       -0.42276153      -0.02605275       0.80209491       0.00030863       0.00092907       0.00074193
C       -0.99956140      -1.00945586       0.21724272      -0.00001276       0.00072468       0.00060579
O       -0.68863240      -1.48627200      -0.87118836       0.00030427      -0.00126415      -0.00063328
C       -2.16746078      -1.63348137       0.97837917       0.00024420      -0.00165841      -0.00088227
Cl      -3.38995156      -0.39739053       1.39544259      -0.00018527      -0.00058494      -0.00034071
O        1.33264819       1.62540772       0.23623352      -0.00023249      -0.00095321      -0.00052307
C       -0.36844960       1.62418647      -0.37291376       0.00032848      -0.00026791       0.00081676
C       -0.46525740       1.39676778      -1.65409692      -0.00029758      -0.00027510      -0.00033977
C       -1.04590870       2.52323612       0.57896999       0.00070285       0.00159612      -0.00004566
H        3.03764899      -2.13359887       0.11174602      -0.00037621       0.00075290       0.00148852
H        3.37480028      -2.02271346      -1.61629770      -0.00075708       0.00007201      -0.00050953
H        4.28958516      -1.03651464      -0.46642305      -0.00025634      -0.00010602       0.00033205
H        1.26848548      -0.78087617      -1.04276210      -0.00006295      -0.00009405      -0.00025263
H        2.49425293       0.33244729      -1.65255902      -0.00008347      -0.00028272       0.00015919
H       -1.81661239      -2.06434550       1.91331038      -0.00002117       0.00031966       0.00067649
H       -2.65169068      -2.38674130       0.36716186       0.00022240       0.00037435       0.00002346
H        1.25719802       1.97330254       1.14189135       0.00012887      -0.00000598       0.00070531
H        0.15315790       0.71760009      -2.21371138      -0.00047170      -0.00013516      -0.00091032
H       -1.31708904       1.85147749      -2.14292317       0.00069199       0.00008526      -0.00013045
H       -2.07086674       2.64485953       0.22795881      -0.00019993      -0.00014776      -0.00035123
H       -1.09596808       2.07131926       1.56688483      -0.00043621       0.00040731       0.00000559
H       -0.56954037       3.50428914       0.61504128       0.00035968      -0.00048987       0.00052648
