18
Properties=species:S:1:pos:R:3:forces:R:3 charge=0 spin=1 energy=-17024.029463426737 pbc="F F F"
O       -3.68568761      -0.53803459       0.38824531       0.00037860       0.00012490      -0.00038665
C       -2.84919003      -0.15258408       1.16090473       0.00066685      -0.00028680       0.00020764
C       -1.48662180       0.28806426       0.70160352      -0.00074955       0.00036465       0.00019766
N       -1.38556000       0.10025326      -0.75807821       0.00017274       0.00028349      -0.00082546
C       -0.39452147      -1.00301729      -1.19304890      -0.00003947       0.00000964      -0.00067354
O       -0.34644352      -1.25803082      -2.34253098      -0.00013003       0.00025847       0.00069216
O        0.91540327       0.70896426      -0.70027955      -0.00011104      -0.00008183      -0.00006443
C        1.83284366       0.88813090       0.16590824       0.00061292      -0.00018374      -0.00003422
O        2.45624197       1.90210908       0.44266435      -0.00032245      -0.00047093       0.00022338
C        2.15020893      -0.30040456       1.08306167      -0.00082179      -0.00046744       0.00031235
O        1.32055428      -1.11158979       1.43222067       0.00060058       0.00080722      -0.00045686
H       -3.03782995      -0.10327167       2.24515218      -0.00050464       0.00026767       0.00051018
H       -0.69293365      -0.28767009       1.18983921       0.00007933      -0.00011837       0.00020393
H       -1.31464705       1.33340644       0.95973454      -0.00008527      -0.00052936      -0.00020006
H       -2.31487139      -0.11448513      -1.13815544       0.00042305       0.00009450       0.00036115
H        0.03496092      -1.51411176      -0.33169342      -0.00003607       0.00014697       0.00002423
H       -0.97058620       0.93089750      -1.19404891      -0.00010533      -0.00050802       0.00012506
H        3.16940964      -0.31135592       1.50167099      -0.00002838       0.00028888      -0.00021642
