26
Properties=species:S:1:pos:R:3:forces:R:3 charge=0 spin=1 energy=-26276.218852973234 pbc="F F F"
O       -0.91233428      -0.83705762      -0.98560383       0.00015217      -0.00066855       0.00017877
C       -2.04791917      -1.05192612      -0.22828291      -0.00037375      -0.00001667       0.00014476
C       -3.09054850       0.04228008      -0.38604026      -0.00033761       0.00029664      -0.00095794
Cl      -2.45555165       1.66043676       0.06983006      -0.00025950       0.00077968       0.00025446
C       -1.40047615      -1.15964829       1.14595604      -0.00061430      -0.00035835       0.00036853
C       -0.02163726      -1.53257133       0.69497967      -0.00020131       0.00075390       0.00102927
N        1.22152136       0.07972374      -0.04875465      -0.00043462       0.00103557      -0.00083365
C        1.90549717       0.87115336       0.97048868      -0.00049573      -0.00061426      -0.00003290
C        3.16217077       0.20051618       1.50336051       0.00086943       0.00055723      -0.00086456
C        1.99204308      -0.45600634      -1.11484284       0.00097067       0.00093126       0.00005636
F        2.69596429       0.54937605      -1.78993201       0.00164100       0.00054205       0.00013161
H        0.36561143       0.49778935      -0.40907651      -0.00072935      -0.00004282      -0.00082397
H       -2.57449138      -1.98925350      -0.49519359       0.00059268      -0.00035935       0.00065216
H       -3.38674027       0.11790289      -1.42904772       0.00096096       0.00034118      -0.00058953
H       -3.96632284      -0.13893545       0.23558701      -0.00069783       0.00043056       0.00139036
H       -1.79125081      -1.86704020       1.88829185      -0.00092534      -0.00152426      -0.00041759
H       -1.37424867      -0.17242074       1.61195573       0.00010259      -0.00046857      -0.00128523
H        0.08480974      -2.42951310       0.10240191      -0.00032844       0.00158442       0.00142779
H        0.74522100      -1.45529679       1.45964142       0.00023787       0.00138123       0.00024716
H        2.15631610       1.85892721       0.57320211      -0.00112434      -0.00105420       0.00092920
H        1.18756201       1.02555559       1.78062403      -0.00059212      -0.00197207       0.00036108
H        3.55453301       0.77702873       2.34021320      -0.00026792      -0.00068368       0.00074129
H        2.96403301      -0.81246219       1.85893612       0.00100934       0.00116898      -0.00088549
H        3.94036982       0.15216346       0.74181820       0.00061539      -0.00009706      -0.00147323
H        1.31281773      -0.92643976      -1.82153762       0.00174717      -0.00104770       0.00104243
H        2.74277046      -1.15500198      -0.74492460      -0.00151705      -0.00089529      -0.00079131
