28
Properties=species:S:1:pos:R:3:forces:R:3 charge=0 spin=1 energy=-15185.072441273447 pbc="F F F"
C       -1.67927456       0.62017606       0.95937786      -0.00056467      -0.00035418      -0.00056383
C       -0.35338621       1.56148596      -0.37496004       0.00055453      -0.00024024       0.00031313
C        0.88046518       1.17567730       0.13700781       0.00083388       0.00022828      -0.00064583
C        1.32626059      -0.11510588      -0.04940469       0.00007934      -0.00071821       0.00013893
C        2.57177012      -0.65953067       0.59010131       0.00058985       0.00056632       0.00006765
N        3.73995883      -0.69808979      -0.27902198       0.00001643       0.00020961       0.00126435
C        4.17688459       0.60223212      -0.76484033      -0.00002589      -0.00000401       0.00027594
C       -2.95416390       1.04312674       0.48137713       0.00048703       0.00074919      -0.00036422
C       -3.60893306       0.32014182      -0.46650143       0.00081761      -0.00072917       0.00067883
C       -3.05669444      -0.90514371      -0.92480849      -0.00030099      -0.00057805      -0.00031255
C       -1.89012872      -1.38741070      -0.41297581       0.00034080       0.00124976      -0.00013666
C       -1.18395579      -0.67489726       0.61190859      -0.00061181      -0.00052905       0.00006944
O       -0.06430490      -1.08109981       1.05917605      -0.00029250      -0.00056015       0.00080973
H       -1.26016284       1.08905055       1.83862270      -0.00034450      -0.00089361      -0.00100937
H       -0.74765511       1.07993570      -1.26280309       0.00029805       0.00068765       0.00021740
H       -0.72388308       2.56292319      -0.20176032       0.00070638      -0.00056498       0.00010691
H        1.31747141       1.75730178       0.94221982      -0.00040805      -0.00005073      -0.00062916
H        0.97560139      -0.65352664      -0.92498225      -0.00127015      -0.00007286      -0.00005689
H        2.36296270      -1.67111904       0.93948159       0.00120308       0.00067431      -0.00019419
H        2.81429799      -0.05776506       1.47046541       0.00006719       0.00012714       0.00021857
H        3.57666668      -1.32806522      -1.05400767      -0.00177524       0.00032895      -0.00077450
H        4.43967384       1.22817506       0.09064086       0.00128765       0.00009070      -0.00080573
H        3.43035023       1.14642855      -1.35677208       0.00029844       0.00071980       0.00107359
H        5.07507534       0.47595904      -1.36925568      -0.00029605      -0.00088089      -0.00043084
H       -3.37389035       1.96992425       0.85322190      -0.00184574      -0.00012979      -0.00003720
H       -4.55744243       0.65967277      -0.86115596       0.00152718      -0.00137180       0.00044961
H       -3.58608601      -1.46975004      -1.68283550      -0.00087375       0.00119951      -0.00071316
H       -1.48041749      -2.33790706      -0.73210569      -0.00049792       0.00084644       0.00099019
