21
Properties=species:S:1:pos:R:3:forces:R:3 charge=0 spin=1 energy=-13678.741003651503 pbc="F F F"
O       -0.48907873      -0.07277461       1.28169595      -0.00119869      -0.00081306       0.00001278
C       -1.28858692       0.67577837       0.44258092       0.00008661       0.00042854       0.00051720
N       -2.51965138       0.09641849      -0.04788405       0.00000983       0.00052395      -0.00055564
C       -2.42632097      -1.31792789      -0.40971819       0.00051711       0.00032885      -0.00032696
C       -0.28474545       0.88966766      -0.62281633      -0.00015574       0.00028219       0.00007604
C        0.67139927       1.98906716      -0.53146716      -0.00025105       0.00074240      -0.00120791
O        0.95921752      -0.98185350      -0.35804564       0.00030454       0.00007540       0.00013301
C        2.29839662      -1.08754002      -0.15778021      -0.00041425      -0.00040816       0.00065997
F        2.86152463       0.15976421       0.16863928       0.00071188      -0.00063309       0.00039680
H        0.36135105      -0.73326072       0.54988688      -0.00025708       0.00013466      -0.00049713
H       -1.55157803       1.64322870       0.89696170       0.00013250       0.00058120       0.00016679
H       -3.23046455       0.21111557       0.66319077       0.00066437      -0.00196449       0.00072460
H       -2.09341772      -1.95407458       0.41425903      -0.00075366       0.00175905       0.00100887
H       -3.40361147      -1.65401538      -0.75276254       0.00082080       0.00002815      -0.00013920
H       -1.72533360      -1.45046627      -1.23498797      -0.00023601      -0.00197029      -0.00077073
H       -0.36642660       0.35162009      -1.55737553       0.00041494      -0.00017611       0.00005299
H        0.87341288       2.25897507       0.50227276       0.00055369       0.00036988      -0.00076140
H        0.14169675       2.82856099      -1.01073457      -0.00041582       0.00040107       0.00146371
H        1.58976221       1.80690599      -1.07932915       0.00007757       0.00055724      -0.00083267
H        2.80035851      -1.41264595      -1.07121597      -0.00010943       0.00076231      -0.00058626
H        2.53817599      -1.74643338       0.68210000      -0.00050193      -0.00100976       0.00046507
