17
Properties=species:S:1:pos:R:3:forces:R:3 charge=0 spin=1 energy=-9334.694875044908 pbc="F F F"
C        1.98879283      -0.64830408      -0.20056644       0.00031039       0.00075455      -0.00033324
O        2.38657979       0.37675196       0.21275001      -0.00016099      -0.00045205      -0.00120861
N        0.32786005      -0.96114985      -0.14223659      -0.00018802      -0.00000177      -0.00015169
C       -0.74193393       0.05237345       0.02554421      -0.00041172      -0.00036750       0.00009758
C       -2.09779474      -0.64188974      -0.00266872      -0.00052135      -0.00090602       0.00017685
C       -0.61654433       1.04237062      -1.12780125       0.00021908       0.00065060       0.00123930
N       -0.61965426       0.78394828       1.27845482      -0.00066119       0.00003301      -0.00070059
H        1.27386238      -1.29151486      -1.02577519       0.00060477      -0.00064293       0.00002116
H        0.15186867      -1.85514969       0.31339626       0.00041718      -0.00007762       0.00086472
H       -2.88894384       0.09843924       0.10838592       0.00061888       0.00008679      -0.00024399
H       -2.18291582      -1.35456814       0.82213472      -0.00069957      -0.00103232       0.00036990
H       -2.23406714      -1.18114243      -0.93987461      -0.00069546       0.00076226      -0.00045850
H       -1.37292606       1.81756811      -1.02026204      -0.00106399      -0.00039381       0.00015888
H       -0.75185365       0.53340549      -2.08217153       0.00174561       0.00134996       0.00032877
H        0.36541474       1.51692762      -1.12023236       0.00050805      -0.00054713       0.00072729
H       -0.68143364       0.14856233       2.06628418      -0.00005803       0.00123558       0.00100684
H        0.28622896       1.23630168       1.32596860       0.00003636      -0.00045177      -0.00189472
