24
Properties=species:S:1:pos:R:3:forces:R:3 charge=0 spin=1 energy=-29967.917767377137 pbc="F F F"
C        4.13205925       0.19527212       0.12079815      -0.00053601       0.00064268       0.00025194
O        2.96492060       0.28422135      -0.70717248       0.00035480      -0.00002591       0.00042322
C        1.84921938       0.63847742      -0.06619457       0.00011612      -0.00041180       0.00047762
O        1.79850310       0.91373724       1.10357939       0.00046166      -0.00020559       0.00047602
C        0.66827319       0.69993305      -1.00900916      -0.00024812      -0.00050411       0.00015536
C       -0.62505062       0.42438999      -0.27000650      -0.00070917       0.00004917      -0.00086058
N       -1.66247813       1.28410332      -0.63916718      -0.00074628       0.00004607      -0.00106367
O       -2.84568401       0.71501906      -0.49024198      -0.00112427      -0.00030378      -0.00106435
S       -0.91993525      -1.32440638      -0.02515629      -0.00009240      -0.00013161      -0.00025873
C       -1.72076214      -1.42567750       1.54518087       0.00151480      -0.00060145      -0.00000357
O       -1.80173487      -1.83907597      -1.03580126      -0.00025182       0.00003361      -0.00039409
O        0.40270326      -1.87719090       0.10809989      -0.00158061       0.00082427       0.00128119
O       -1.46345415       2.08307532       1.14602917      -0.00071826       0.00175376       0.00107627
H        4.34975631       1.15968876       0.57613131       0.00075759       0.00080845      -0.00055761
H        4.93783866      -0.10876399      -0.53934906       0.00026377       0.00004897       0.00059359
H        3.97670506      -0.54378502       0.90410743      -0.00017819      -0.00076076      -0.00048627
H        0.61864442       1.71670921      -1.40692994      -0.00077435      -0.00086625       0.00079571
H        0.82820544       0.02537773      -1.84941674       0.00011117      -0.00021076       0.00005687
H       -3.48428717       1.39757026      -0.74269170      -0.00067570       0.00069621       0.00028762
H       -2.66479934      -0.88961114       1.50354870       0.00231225      -0.00028148      -0.00090570
H       -1.88305403      -2.48774274       1.72464210      -0.00092107       0.00032203       0.00005725
H       -1.05610105      -1.00283192       2.29475358       0.00055153      -0.00024086       0.00004985
H       -0.59568921       1.05537183       0.83980832       0.00154541       0.00058321      -0.00033790
H       -1.17751869       2.99738889       1.28035795       0.00056720      -0.00126420      -0.00004995
