17
Properties=species:S:1:pos:R:3:forces:R:3 charge=0 spin=1 energy=-34224.87212415051 pbc="F F F"
C       -1.08397262      -0.46837899       1.73398314      -0.00159199      -0.00142590      -0.00004871
C       -1.05850108      -0.58375244       0.22749042      -0.00064879       0.00012304      -0.00008594
Cl      -2.70720057      -0.87077690      -0.40346303      -0.00130209       0.00011769      -0.00055256
S       -0.47780767       0.95895794      -0.57906845      -0.00005524       0.00018971       0.00082352
O       -1.12711994       2.08065012       0.13846356      -0.00101099      -0.00036372      -0.00028689
C        1.22188072       0.85893258       0.01327367       0.00062245       0.00054713       0.00043313
N        3.01130717      -0.47033141       0.49897263       0.00053532       0.00139823       0.00037893
O        3.91869865      -0.04598028       0.02084769       0.00115298      -0.00043215      -0.00069437
O        1.91820718      -1.53624372      -0.76448482       0.00015400      -0.00020738      -0.00072070
H       -1.59783250      -1.32779714       2.16148007       0.00032697      -0.00137021       0.00099094
H       -1.60394590       0.44461696       2.02199819      -0.00039818       0.00198248      -0.00109912
H       -0.06946998      -0.44232923       2.13238797       0.00067516      -0.00062456      -0.00055453
H       -0.43348427      -1.39506824      -0.13954004      -0.00075929      -0.00043528      -0.00008406
H        1.19346391       1.13104301       1.06871132       0.00205060       0.00011536       0.00091433
H        1.78431210       1.61523874      -0.53866962       0.00025097       0.00129347      -0.00064366
H        1.50153239      -0.42001400      -0.47630579       0.00070916       0.00005667       0.00016395
H        2.32551241      -1.48583699      -1.63991692      -0.00071078      -0.00096454       0.00106587
