22
Properties=species:S:1:pos:R:3:forces:R:3 charge=0 spin=1 energy=-17003.06269816118 pbc="F F F"
N        3.96536570       2.12694483      -0.66194270       0.00048646       0.00040293       0.00024221
C        3.34565130       1.21329799      -0.33427081      -0.00191840      -0.00075365      -0.00003346
O        2.71256120       0.14378661       0.02318080       0.00135137       0.00019881      -0.00009305
N        1.34715888       0.48507007       0.42867387      -0.00005178      -0.00046790       0.00009696
C        0.50702156      -0.48342454      -0.11241711       0.00037483       0.00026323       0.00013029
N        0.95024625      -1.34903069      -1.01531022      -0.00018233      -0.00034719       0.00003605
C       -0.94549716      -0.17458726      -0.08256874      -0.00013982      -0.00013119       0.00034386
C       -1.87526116      -1.21104575      -0.05624572      -0.00014479       0.00021755       0.00126642
C       -3.22765151      -0.92397943      -0.06787831       0.00012241       0.00014088       0.00067185
C       -3.65676397       0.39829614      -0.10472553       0.00043257      -0.00000065      -0.00072447
C       -2.73100588       1.42798508      -0.12717942       0.00004697       0.00013437      -0.00065092
C       -1.37094991       1.14603875      -0.11656302      -0.00021296      -0.00023634      -0.00004511
O        0.66064221      -1.29441771       1.73578967      -0.00040622      -0.00012158      -0.00067624
H        1.92204455      -1.60873149      -0.99085597      -0.00022955      -0.00003398       0.00023973
H        0.29739511      -2.00026957      -1.41444891      -0.00004207       0.00037672       0.00016870
H       -1.53304017      -2.23639926       0.01715488       0.00139997       0.00007728      -0.00046771
H       -3.94997329      -1.72883459      -0.03605350      -0.00080242       0.00056031      -0.00035896
H       -4.71555594       0.62170078      -0.11187899      -0.00017548      -0.00083212      -0.00002054
H       -3.06338222       2.45694100      -0.15499050       0.00059251       0.00052119       0.00046705
H       -0.63815711       1.94077625      -0.13648235      -0.00058545      -0.00024722       0.00006690
H        1.21215741      -0.04447226       1.46040155      -0.00010384       0.00006639      -0.00070501
H       -0.10366585      -1.38354495       2.31620105       0.00018813       0.00021206       0.00004564
