26
Properties=species:S:1:pos:R:3:forces:R:3 charge=0 spin=1 energy=-37660.564602309634 pbc="F F F"
O       -2.33823688       3.24267215       0.43181322       0.00033095       0.00006978       0.00058168
C       -1.86417919       2.22375392       0.85776461      -0.00044576       0.00048977       0.00048508
C       -1.78660583       0.92633119       0.10112972       0.00013032       0.00010084       0.00016225
C       -0.32297309       0.51719462      -0.09573981       0.00041871      -0.00046728      -0.00002107
C        0.38124635       1.51229219      -1.03296522      -0.00037652      -0.00074474      -0.00027891
C        1.87663743       1.64740931      -0.74927401      -0.00066052      -0.00022463       0.00009482
C        2.69847222       0.48961741      -1.07078948      -0.00067742      -0.00038092      -0.00061339
O        1.19673364      -1.20851611      -0.87713775       0.00001287      -0.00073781      -0.00055306
C       -0.18194796      -0.90686408      -0.64357288       0.00028434      -0.00060069      -0.00022189
C       -0.73612213      -2.00961738       0.25783808       0.00037330      -0.00033355       0.00004265
Cl      -2.47088949      -2.34188356      -0.02916480       0.00031899      -0.00020640       0.00047797
Cl       2.74163050      -0.57945865       1.43062124       0.00082630       0.00005202       0.00041006
H       -1.42551344       2.19269230       1.87771017      -0.00063700       0.00129194       0.00021579
H       -2.30554352       1.03283512      -0.85324649       0.00122894       0.00043977      -0.00063450
H       -2.31352081       0.17678214       0.69600573       0.00038795       0.00011277       0.00064065
H        0.18491958       0.53754762       0.87597925       0.00055450      -0.00081438       0.00001379
H       -0.06496957       2.50223299      -0.92858577      -0.00022420      -0.00086824       0.00031822
H        0.22024481       1.20946161      -2.07276444       0.00031007      -0.00121635      -0.00006284
H        2.30350382       2.40564025      -1.43597955       0.00123875      -0.00008161       0.00169001
H        2.06895422       1.98375771       0.26753639      -0.00128564       0.00046947       0.00004940
H        2.56535402       0.00345940      -2.02568577       0.00042777      -0.00033809      -0.00076887
H        3.64563444       0.34837228      -0.57474973      -0.00039755       0.00171594      -0.00092647
H       -0.67428201      -0.97129426      -1.61766170       0.00078218       0.00041239      -0.00061968
H       -0.20888056      -2.93291461       0.03638639      -0.00061728      -0.00088151      -0.00058338
H       -0.60940895      -1.76935683       1.31234785      -0.00172767       0.00134406      -0.00001140
H        1.65459241      -1.28950673       0.00485475      -0.00057636       0.00139734       0.00011282
