35
Properties=species:S:1:pos:R:3:forces:R:3 charge=0 spin=1 energy=-21856.41224132576 pbc="F F F"
C       -3.98568028      -1.46549813      -0.99381564      -0.00061348      -0.00007744       0.00065896
C       -3.42483496      -1.16268318       0.38256557      -0.00026444      -0.00007247       0.00025781
N       -2.23468953      -1.97629829       0.67452663      -0.00059939      -0.00034852      -0.00045144
N       -1.12037873      -1.53842610      -0.09650358      -0.00021547      -0.00044331      -0.00051590
C       -0.12640824      -0.64052594       0.69269403      -0.00023761      -0.00075418       0.00008427
O       -0.49159087      -0.29256115       1.79064928      -0.00086669      -0.00082171      -0.00074023
C        1.29438117      -0.81296984       0.26907310      -0.00004406       0.00085929       0.00000438
C        2.26017719      -0.80489283       1.26767851       0.00054826       0.00142992       0.00041533
C        3.59672721      -0.97694691       0.93930248       0.00009302      -0.00132752      -0.00023124
C        3.96777434      -1.16370992      -0.38367295      -0.00033965       0.00144191       0.00052283
C        3.00222588      -1.16990445      -1.38239977       0.00019552       0.00041957      -0.00004978
C        1.66717339      -0.99116932      -1.05980772      -0.00057197      -0.00158935      -0.00034205
O       -0.70267227       0.64069483      -0.69336742       0.00097444       0.00019642      -0.00056951
C       -1.26227560       1.78811984      -0.14538253      -0.00013102      -0.00060081      -0.00004503
C       -0.36330885       3.00803939      -0.27122222      -0.00059035       0.00021655       0.00006352
C        1.11367426       2.74920998      -0.40139909      -0.00091994       0.00000562       0.00030411
O       -0.82995580       4.12221865      -0.23112033       0.00129653       0.00046914       0.00010355
H       -3.28224345      -1.19785718      -1.78497516      -0.00031996      -0.00047569       0.00066420
H       -4.89498225      -0.88921274      -1.16415114      -0.00031162       0.00017843       0.00061197
H       -4.22045608      -2.52585610      -1.08666389      -0.00016156       0.00027124       0.00060644
H       -3.21559445      -0.09260516       0.48913218       0.00004409       0.00041072      -0.00086355
H       -4.15089708      -1.43056970       1.15083848      -0.00034503      -0.00052161      -0.00037443
H       -1.95835045      -1.78287495       1.63700447       0.00035679       0.00016697      -0.00112068
H       -0.66300945      -2.32741231      -0.54225227       0.00067868      -0.00006729       0.00104204
H        1.94908164      -0.65477070       2.29281835      -0.00019600      -0.00041019       0.00000555
H        4.34787261      -0.96404791       1.71802297       0.00096442       0.00081435      -0.00010387
H        5.01055043      -1.29690492      -0.64054732      -0.00015281      -0.00002144       0.00065181
H        3.29251634      -1.29699019      -2.41704336       0.00072578       0.00029509       0.00025681
H        0.92465045      -0.93679086      -1.84540002      -0.00013006      -0.00023578      -0.00021861
H       -1.30185428      -0.61544696      -0.74394982      -0.00100868      -0.00029124      -0.00091324
H       -1.43859710       1.65778503       0.93937291       0.00144845       0.00067830       0.00074308
H       -2.22795232       2.04307661      -0.59653444      -0.00003202       0.00060439      -0.00033481
H        1.45720210       2.13412051       0.43366142       0.00099722      -0.00024056      -0.00139168
H        1.64888890       3.69520784      -0.42159409      -0.00004971      -0.00073563       0.00050537
H        1.30847613       2.17324309      -1.30695764      -0.00022182       0.00057666       0.00076425
