20
Properties=species:S:1:pos:R:3:forces:R:3 charge=0 spin=1 energy=-12990.014011843754 pbc="F F F"
O       -0.02400799      -0.65368797       1.70071908      -0.00015929      -0.00044433       0.00023303
C        0.08668442      -0.16972761       0.62303223       0.00012013      -0.00000296      -0.00051716
O       -0.81222234      -0.07970948      -0.39128211       0.00210743       0.00049040      -0.00118577
O       -2.42457609      -0.34623555       0.64258114      -0.00024327      -0.00037463       0.00101093
C       -3.38552117      -0.31958312      -0.33382928      -0.00039671       0.00131567      -0.00033068
C        1.26653157       0.43268446      -0.06192172       0.00097940      -0.00023084       0.00089016
C        1.42737716       1.91903514      -0.03087211       0.00006781       0.00001515      -0.00058256
N        2.38109849      -0.31797426      -0.18281418      -0.00107492       0.00020453      -0.00052363
C        2.34059998      -1.77231767      -0.18673624      -0.00072475       0.00010882       0.00042179
H        0.08267314       0.26172351      -1.08622604      -0.00106781      -0.00050879       0.00009761
H       -3.45790578       0.64755162      -0.85963783      -0.00025916      -0.00085186       0.00047050
H       -3.26684010      -1.11359628      -1.08928741       0.00010815      -0.00001975       0.00009025
H       -4.36503840      -0.48876035       0.14231801      -0.00017899       0.00012197      -0.00024780
H        0.46636691       2.42251651      -0.10916209      -0.00015568      -0.00000887       0.00030610
H        1.88815815       2.21174189       0.91828810      -0.00036104      -0.00003718      -0.00007425
H        2.07036982       2.26145969      -0.84297272       0.00038337       0.00017534      -0.00008909
H        3.15610564       0.10371222      -0.66975813      -0.00059804      -0.00029882       0.00037204
H        3.34747947      -2.14732403      -0.35125743      -0.00030136      -0.00043448       0.00075094
H        1.68769827      -2.15082655      -0.97976627       0.00091025       0.00025822       0.00011304
H        1.97904883      -2.14407220       0.77068503       0.00084458       0.00052232      -0.00120537
