17
Properties=species:S:1:pos:R:3:forces:R:3 charge=0 spin=1 energy=-26904.898312644702 pbc="F F F"
N        2.10269068       1.80018083      -0.31534255       0.00034888       0.00013809      -0.00018645
C        2.01811327       0.51768712       0.24202899      -0.00028465       0.00032280      -0.00044855
F        2.96576716      -0.37838709      -0.23744118      -0.00014561       0.00027500      -0.00007806
S        0.40595509      -0.20517499      -0.20651961      -0.00017206       0.00174939       0.00048508
O        0.30504564      -0.00322865      -1.64500388      -0.00015493      -0.00028160      -0.00157605
O        0.38982891      -1.54979202       0.31191679       0.00042123      -0.00071894       0.00081928
C       -0.81929823       0.70997796       0.54981720       0.00004273      -0.00002838       0.00004210
N       -2.20835452      -0.49672159      -1.32377325      -0.00187421       0.00145370       0.00006016
O       -2.72543274       0.24092020      -1.94382991       0.00160027      -0.00136232       0.00043107
O       -3.13342205      -0.53710092       0.39758180       0.00034231      -0.00081374       0.00039889
H        1.98190079       1.76894556      -1.32057200       0.00038027      -0.00004366       0.00040109
H        2.95786736       2.27665590      -0.06616998      -0.00072602      -0.00094605       0.00027445
H        2.10223551       0.53485839       1.32870616      -0.00010083      -0.00029417       0.00004793
H       -0.84021047       1.71834920       0.14150727      -0.00075871      -0.00040804      -0.00002723
H       -0.66598109       0.72093926       1.63148765       0.00010788      -0.00023955       0.00020448
H       -2.13899871       0.00653212       0.57547768       0.00107025       0.00046125      -0.00024975
H       -3.01040660      -1.43204126       0.74363881      -0.00009694       0.00073635      -0.00059841
