25
Properties=species:S:1:pos:R:3:forces:R:3 charge=0 spin=1 energy=-29426.17372502463 pbc="F F F"
C       -3.16120141       0.95285374       0.43493962      -0.00166409      -0.00055797       0.00104850
C       -3.04563837      -0.44945645      -0.10212842      -0.00001870      -0.00032127      -0.00028354
O       -4.00785573      -1.11663898      -0.39389508       0.00017668      -0.00034250      -0.00047394
C       -1.64491435      -0.99401924      -0.33589765       0.00026740       0.00027581       0.00050986
N       -0.70395162      -0.62685887       0.72172191       0.00006545       0.00009418       0.00037406
C        0.66186561      -0.47343962       0.35124754      -0.00020316      -0.00020365       0.00007056
N        1.15090223      -1.52212086      -0.43047866      -0.00125204      -0.00055799       0.00069348
O        2.17591093      -1.17382167      -1.16738329       0.00006085      -0.00000884      -0.00086279
S        0.99879792       1.24132198      -0.15301304       0.00030593      -0.00008198      -0.00026376
C        0.53050556       2.10876657       1.31524627       0.00038776      -0.00030354      -0.00055234
O        2.40182360       1.44286262      -0.36115168       0.00055466       0.00015853       0.00096104
O        0.05654675       1.56766184      -1.19352887       0.00057619      -0.00021203       0.00083576
O        2.01308749      -2.03723189       1.36283771      -0.00062938       0.00102204      -0.00093182
H       -2.48661130       1.61705892      -0.10847577      -0.00108239       0.00038371       0.00032607
H       -4.19082714       1.28898227       0.34597008       0.00074051       0.00088789      -0.00149104
H       -2.86020682       0.96934213       1.48414325       0.00015341       0.00030625       0.00017613
H       -1.72060779      -2.07050772      -0.50111142      -0.00011572       0.00000717      -0.00000658
H       -1.30212421      -0.52951102      -1.26446683       0.00075946      -0.00045022       0.00014253
H       -0.78598624      -1.22455854       1.53295839      -0.00027819       0.00011148       0.00027178
H        2.41877822      -1.97705840      -1.65200346      -0.00069653      -0.00026078      -0.00012642
H       -0.50359143       1.88524640       1.55470204      -0.00114016      -0.00036700      -0.00073375
H        1.20534684       1.82471778       2.11928681       0.00020723       0.00037877       0.00042763
H        0.65822384       3.16227804       1.06918225       0.00040902       0.00044022       0.00020083
H        1.39805074      -0.77957023       1.29066327       0.00058252      -0.00002201      -0.00012088
H        2.68530668      -2.60463881       1.76998501       0.00183342      -0.00037625      -0.00019107
