47
Properties=species:S:1:pos:R:3:forces:R:3 charge=0 spin=1 energy=-32256.245593316155 pbc="F F F"
N       -0.47936659      -0.73289518       0.34006953      -0.00056178      -0.00004955      -0.00011097
C        0.54372155      -0.77902403      -0.51044225      -0.00005142       0.00011520       0.00021317
O        0.73060621      -1.03558721      -1.66853443       0.00021222       0.00000296      -0.00024721
N        1.61250012      -0.25407728       0.47493379       0.00043677       0.00059192      -0.00003906
C        1.98601093       1.11009716       0.11893022       0.00101639      -0.00010547      -0.00003651
C        3.16804523       1.35763376      -0.56107028      -0.00028259       0.00078910       0.00018991
C        3.47004510       2.65705711      -0.94035755      -0.00044899      -0.00021579      -0.00073773
C        2.58821144       3.69237435      -0.66030169       0.00103424       0.00012242       0.00089813
C        1.40271505       3.42916280       0.01033664      -0.00050731      -0.00035618       0.00000560
C        1.10049129       2.13688961       0.41347954      -0.00074895       0.00038343      -0.00058035
C        2.68645886      -1.14238152       0.84177081      -0.00074425      -0.00021627      -0.00018071
C        3.40085732      -0.85059097       1.99727162       0.00013679       0.00000858      -0.00022953
C        4.41646569      -1.69603209       2.40629745       0.00016507       0.00055067      -0.00083813
C        4.71758874      -2.83276677       1.66571591       0.00000568      -0.00021890       0.00059411
C        4.00104495      -3.11460289       0.51439389       0.00001971      -0.00056459      -0.00011498
C        2.98275840      -2.26880170       0.09130519      -0.00024900      -0.00014647       0.00033386
C       -1.82098498      -0.65942548      -0.06469880       0.00007344       0.00040208       0.00028825
C       -2.48086312       0.51967875       0.26573475      -0.00044902      -0.00015584       0.00017005
C       -3.79826872       0.67333524      -0.14487868       0.00093668      -0.00024642       0.00017513
C       -4.34522560       1.94252719       0.22299800       0.00081788      -0.00071003       0.00011929
O       -4.08990534       2.96660115       0.65875974      -0.00087384       0.00134311       0.00012320
O       -1.98930430       3.16466163       1.05830331      -0.00003783       0.00161103       0.00095052
C       -4.47727364      -0.31052666      -0.86410121      -0.00097345       0.00002931      -0.00038164
C       -3.81361865      -1.47935986      -1.18420232       0.00019097      -0.00004242       0.00002705
C       -4.52086347      -2.54818304      -1.97362060      -0.00035528      -0.00070950       0.00022072
C       -2.47592591      -1.66924215      -0.77745459      -0.00073648      -0.00040102      -0.00055581
C       -1.75356974      -2.93772546      -1.11822986      -0.00039437      -0.00010066      -0.00059494
H        0.50747953      -0.27858983       1.11858834      -0.00015000      -0.00002748      -0.00006164
H        3.84338662       0.54375921      -0.79168479       0.00032265      -0.00046940       0.00003652
H        4.39370152       2.85684933      -1.46809913      -0.00028494      -0.00046021       0.00008870
H        2.82695807       4.70163648      -0.97019778      -0.00051783      -0.00040622       0.00015288
H        0.68461406       4.20805848       0.22687341      -0.00049881       0.00024964      -0.00010784
H        0.16545631       1.96929614       0.93191565       0.00106846       0.00034842       0.00014062
H        3.15669545       0.04011156       2.56231116       0.00000326       0.00017709       0.00025149
H        4.97248620      -1.46948749       3.30635746       0.00037782      -0.00012368       0.00106909
H        5.51153765      -3.49426519       1.98637760       0.00019480       0.00001108       0.00002390
H        4.23679419      -3.99472670      -0.06958185      -0.00017326      -0.00004232      -0.00015715
H        2.43441753      -2.47202485      -0.81785629      -0.00014524       0.00024661      -0.00078954
H       -2.01454119       1.35002748       0.80354507      -0.00032907       0.00014212      -0.00020265
H       -2.10665563       3.94757459       1.60728191       0.00021437      -0.00165160      -0.00085545
H       -5.50260012      -0.15685933      -1.17388400       0.00120796      -0.00017790       0.00031074
H       -5.50846279      -2.21161696      -2.28337050       0.00077174       0.00002205       0.00022257
H       -3.95588560      -2.81622934      -2.86742669      -0.00026749      -0.00020631       0.00016503
H       -4.64519607      -3.45850394      -1.38407085       0.00012905       0.00078497      -0.00063317
H       -1.37255153      -2.90063256      -2.14109661      -0.00022438       0.00020402       0.00046059
H       -0.89956824      -3.08295319      -0.45979387       0.00035096      -0.00012236       0.00022005
H       -2.41177677      -3.80158034      -1.03504631       0.00031831      -0.00020937       0.00000402
