17
Properties=species:S:1:pos:R:3:forces:R:3 charge=0 spin=1 energy=-9335.959254623469 pbc="F F F"
N       -2.48804831       0.01253130      -0.29838788       0.00040172       0.00004097       0.00052148
C       -1.21001137       0.00160608      -0.04283907      -0.00073327      -0.00016416      -0.00108007
O       -1.07836389      -0.05091708       1.23493507       0.00061766      -0.00001257       0.00082024
C       -0.05669387       0.04128021      -1.02018039       0.00006399       0.00147646      -0.00000838
N        1.27539178       0.01963020      -0.47979717      -0.00009109      -0.00045818       0.00038122
C        1.62110866       1.19846197       0.29651670       0.00063003       0.00017979       0.00050794
C        1.62172542      -1.21816111       0.19829276      -0.00091147      -0.00046888      -0.00002699
H       -2.90030756       0.05048720      -1.21742665       0.00037604       0.00000908      -0.00029104
H       -2.37492748      -0.04161449       1.01936100      -0.00068411      -0.00000217       0.00025478
H       -0.18424258       0.94197367      -1.62735974       0.00012256      -0.00051784       0.00034354
H       -0.18400466      -0.80745339      -1.69806662       0.00003346      -0.00067336      -0.00041641
H        1.38420131       2.09552225      -0.27817430      -0.00014177       0.00074211      -0.00068977
H        2.69564494       1.19645379       0.48438809      -0.00044508       0.00037120      -0.00004232
H        1.09801879       1.24962572       1.25894146      -0.00005135      -0.00015761       0.00007164
H        2.69624556      -1.23090587       0.38564129       0.00061056      -0.00034265       0.00013258
H        1.38516368      -2.06574129      -0.44730564       0.00006135      -0.00022627      -0.00039574
H        1.09870957      -1.34750918       1.15340108       0.00014082       0.00020408      -0.00008270
