31
Properties=species:S:1:pos:R:3:forces:R:3 charge=0 spin=1 energy=-28534.392806478452 pbc="F F F"
C       -3.32475410       1.88046057       1.00480936      -0.00074304      -0.00096763      -0.00027024
N       -3.97703361       1.00416892       0.04360999      -0.00214295       0.00056126      -0.00104686
C       -3.06777411       0.28834860      -0.83477229      -0.00008910      -0.00000539       0.00007656
C       -2.62974397      -1.06651022      -0.27542052       0.00071538       0.00007473      -0.00021745
N       -1.77614253      -0.85852107       0.89044759      -0.00022089       0.00026711       0.00058188
C       -0.42152383      -0.61771283       0.70955236       0.00082549       0.00051399      -0.00014442
S        0.28383998      -0.57796734      -0.95266575      -0.00038131       0.00040165       0.00037391
O        0.45971283      -1.97991287      -1.41513431      -0.00019324      -0.00045815       0.00026976
C        1.87720767       0.02001127      -0.39172631       0.00035700      -0.00033861      -0.00017380
C        2.92501153      -0.87944184      -0.30386168       0.00114065      -0.00093615      -0.00016572
C        4.17204951      -0.42437258       0.10190557       0.00023412       0.00082770       0.00041628
C        4.35956751       0.91552461       0.41045988      -0.00017956      -0.00013903      -0.00079337
C        3.30264777       1.81104830       0.30638205      -0.00096108      -0.00018940      -0.00004391
C        2.05550986       1.36568792      -0.10369658      -0.00018855      -0.00061652       0.00019115
O       -1.49854209      -2.54405986       1.36532124      -0.00013816      -0.00000784      -0.00058976
H       -2.61667521       2.58353326       0.54017248       0.00126747      -0.00091962      -0.00087920
H       -4.07935793       2.45444173       1.54157525      -0.00074149       0.00103627       0.00017421
H       -2.77611440       1.28259585       1.73168069       0.00119863      -0.00021482       0.00020524
H       -4.63327434       1.53443884      -0.51104933       0.00069929      -0.00046325       0.00009318
H       -2.18494613       0.88662697      -1.10320677       0.00039091       0.00040641       0.00077397
H       -3.59079217       0.06582298      -1.76598260      -0.00003021      -0.00006097      -0.00092100
H       -3.51459996      -1.60295271       0.05781011      -0.00019317       0.00002965       0.00039948
H       -2.12485497      -1.64982648      -1.05025790      -0.00027927       0.00036257       0.00047661
H       -0.00073823       0.12274647       1.38536326       0.00032352       0.00005438       0.00008030
H        2.74643393      -1.91554922      -0.56255174      -0.00046207      -0.00003940      -0.00033941
H        4.99917412      -1.11827387       0.17555025       0.00088492      -0.00029159      -0.00094129
H        5.33361063       1.26658391       0.72535278       0.00064531      -0.00004188      -0.00003203
H        3.45222689       2.85791094       0.53606501       0.00007309       0.00077163       0.00102412
H        1.22873988       2.06000138      -0.20295668      -0.00109331       0.00071593       0.00078453
H       -0.41816027      -1.93809900       1.18840178      -0.00012165      -0.00047618      -0.00024946
H       -1.73262426      -2.58717262       2.30539282      -0.00059672       0.00014322       0.00088727
