14
Properties=species:S:1:pos:R:3:forces:R:3 charge=0 spin=1 energy=-12545.441076405357 pbc="F F F"
C       -0.29760901       1.66413379       0.86428397      -0.00010180      -0.00016597       0.00029680
C       -0.15592880       0.68234560      -0.30754470      -0.00025310       0.00003851      -0.00006087
C        1.23139999       0.16365993      -0.43791663      -0.00040393      -0.00034130      -0.00083286
N        2.24083601       0.13143172      -1.09030521       0.00007474       0.00011381       0.00044696
C       -1.13652889      -0.45343658      -0.15807853       0.00003382      -0.00069876       0.00041865
O       -0.92995345      -1.59151942       0.08535381      -0.00015468       0.00061825      -0.00054515
F       -2.39490562      -0.00553151      -0.32474919       0.00039073       0.00012819       0.00004395
O        1.67463826      -0.71339893       0.95518569       0.00004749      -0.00014676       0.00056938
H       -0.04499594       1.16947549       1.80054414       0.00094424       0.00015821       0.00033142
H        0.38331079       2.49990898       0.71923321      -0.00059536       0.00003962      -0.00048116
H       -1.31650892       2.04225089       0.91493469      -0.00014324      -0.00013998      -0.00012169
H       -0.38850698       1.19037225      -1.24603334       0.00010096       0.00049930      -0.00013080
H        1.21949937      -1.56983525       0.94487550      -0.00004518       0.00002311      -0.00002183
H        2.51444318      -0.60040697       0.03651657       0.00010536      -0.00012626       0.00008728
