29
Properties=species:S:1:pos:R:3:forces:R:3 charge=0 spin=1 energy=-17695.6803641833 pbc="F F F"
C        0.62874460       1.29072033       0.06160143       0.00030273      -0.00042038      -0.00058627
C        0.80779999      -0.07250863       0.13940082      -0.00022432      -0.00010141      -0.00044443
C        1.73190054      -0.66490988       1.17163361       0.00009119      -0.00045196       0.00028497
C        3.11456343      -1.01477794       0.62215899      -0.00013725       0.00004712      -0.00032682
N        3.90320553       0.13912472       0.18002123      -0.00174000      -0.00078491       0.00035514
C        3.64756614       0.70054465      -1.00703067       0.00072286      -0.00010742       0.00020204
N        3.46981212       1.16273234      -2.04938239       0.00153827      -0.00132620       0.00025337
C       -0.15555461      -0.87387136      -0.47497482      -0.00007397       0.00067231      -0.00002167
C       -1.73618799      -0.72036635       0.86459717      -0.00005793       0.00004770      -0.00025510
C       -2.72821853      -1.57550163       0.29362085       0.00014215      -0.00006204      -0.00004097
C       -3.63429910      -1.08135795      -0.58989000      -0.00047236       0.00060789       0.00056162
C       -3.64873323       0.30889895      -0.88595353      -0.00052508      -0.00035554       0.00067270
C       -2.78656373       1.16745535      -0.27552099       0.00018349       0.00012855      -0.00021418
C       -1.83852193       0.69492258       0.69071034       0.00018877      -0.00009504      -0.00009949
O       -0.98473009       1.47243589       1.22698813       0.00004554      -0.00056089       0.00008366
H        1.25842589       1.96963241       0.61972176      -0.00077221      -0.00007403      -0.00042045
H        0.10496676       1.72475616      -0.77750716      -0.00023120       0.00000590      -0.00014548
H        1.30120210      -1.58463243       1.58091130      -0.00007839       0.00009748      -0.00005533
H        1.84710993       0.02559351       2.01251154      -0.00014420       0.00019306      -0.00048932
H        3.02586955      -1.68793444      -0.23103156       0.00103767       0.00068982      -0.00000585
H        3.70346107      -1.52788732       1.38323861      -0.00030558       0.00033979       0.00077982
H        4.17523315       0.79220143       0.89927331       0.00038458       0.00091673       0.00016896
H       -0.06943782      -1.95302274      -0.42564942       0.00024312       0.00032007      -0.00024698
H       -0.69648596      -0.50485160      -1.33825141      -0.00026545       0.00071833       0.00004202
H       -1.17002972      -1.07086796       1.71780494       0.00015535      -0.00048556      -0.00064580
H       -2.72008157      -2.62997863       0.54178649       0.00069764       0.00035554      -0.00075615
H       -4.36032444      -1.73361343      -1.05681921      -0.00014358       0.00012912       0.00025726
H       -4.37232038       0.68716671      -1.59768390      -0.00074995      -0.00031874       0.00085194
H       -2.81193171       2.23253725      -0.46921544       0.00018818      -0.00012515       0.00024080
