13
Properties=species:S:1:pos:R:3:forces:R:3 charge=0 spin=1 energy=-14093.472917682597 pbc="F F F"
O        0.74040962       0.25652908      -1.02533383      -0.00168558       0.00032904      -0.00096699
C        1.01367642      -0.19346209       0.95305491       0.00046463      -0.00041198       0.00006679
C        0.16574163      -0.66349108      -0.13807919       0.00058435       0.00017463       0.00054103
F        2.85822867       0.20037622      -0.06363448       0.00029407      -0.00001246       0.00073945
C       -1.34885729      -0.53050514       0.06564750      -0.00003215      -0.00005162       0.00005313
O       -2.04796625      -1.48982761       0.18853792      -0.00017516      -0.00044043      -0.00010475
O       -1.92000012       0.69602160       0.04600636       0.00125098       0.00006707       0.00018444
O       -0.99700612       1.78030630       0.15881718      -0.00168680       0.00044595      -0.00019672
H        2.07733410       0.28670039      -0.72571259       0.00052490      -0.00043882      -0.00040764
H        1.73028933      -0.81941071       1.46146374      -0.00020565      -0.00030258       0.00030935
H        0.83762802       0.80620779       1.31970793       0.00006718       0.00026917      -0.00031513
H        0.33056889      -1.70696509      -0.40897735      -0.00007693       0.00002621      -0.00008698
H       -0.39792691       1.61258034      -0.60312811       0.00067616       0.00034586       0.00018402
