45
Properties=species:S:1:pos:R:3:forces:R:3 charge=0 spin=1 energy=-37963.34556642919 pbc="F F F"
N       -0.68939745      -0.09459587      -0.16387824       0.00035197      -0.00123671       0.00007928
C        0.25696265      -0.04523377       0.74660124       0.00004668      -0.00061994       0.00003939
S        0.40351479       0.07813878       2.37085151      -0.00013676       0.00010483      -0.00014481
N        1.44547358      -0.13396927      -0.22918802       0.00017573       0.00043959      -0.00000375
C        2.18080393      -1.37478521      -0.09414992      -0.00014184      -0.00025446      -0.00015655
C        1.90381750      -2.40701468      -0.97317439       0.00012600       0.00000245      -0.00001604
C        2.57405423      -3.61505395      -0.83808532      -0.00032174      -0.00040901       0.00039493
C        3.51076145      -3.77802426       0.17088524      -0.00049575       0.00036264       0.00062759
C        3.77676532      -2.73524954       1.04973695       0.00016897      -0.00006202      -0.00015238
C        3.11184926      -1.52701191       0.92258809      -0.00046805       0.00005645       0.00013185
C        2.23496511       1.07068593      -0.39097065       0.00029964       0.00047755       0.00016679
C        1.73312503       2.29404568       0.02986182       0.00030958       0.00007165      -0.00003847
C        2.46062146       3.44944037      -0.21494484       0.00022229      -0.00008974      -0.00002383
C        3.67835311       3.39052064      -0.87440231      -0.00009868      -0.00020875      -0.00054547
C        4.16930304       2.16342699      -1.29536553      -0.00012540       0.00015694      -0.00047992
C        3.45143282       1.00215155      -1.05800112      -0.00009354      -0.00041348      -0.00075927
C       -2.08084026      -0.11103068       0.05716505       0.00054328      -0.00028492      -0.00177172
C       -2.63539877      -0.84163920       1.10009343      -0.00083106       0.00020436       0.00074567
C       -4.01114768      -0.86940414       1.26068601       0.00067316      -0.00004099      -0.00020795
C       -4.85927511      -0.19121881       0.40027406      -0.00057270       0.00037400       0.00040846
C       -6.35205235      -0.20956291       0.55481547      -0.00001196       0.00114768       0.00126418
C       -4.27759506       0.52736792      -0.64268760       0.00108289       0.00069541      -0.00038605
O       -5.14104834       1.18422272      -1.47846115      -0.00057138      -0.00003153      -0.00115020
C       -2.90004557       0.58821928      -0.83658725       0.00030124       0.00016300      -0.00000171
C       -2.34471715       1.40665632      -1.97066975       0.00101311       0.00049235       0.00057762
H        0.39711953      -0.19074384      -0.94579212       0.00012523       0.00180610      -0.00036142
H        1.16967270      -2.26493308      -1.75668759      -0.00040197       0.00066331       0.00001411
H        2.36290914      -4.42527794      -1.52315627       0.00073647      -0.00046948      -0.00006025
H        4.03441661      -4.71913976       0.27567484      -0.00016878       0.00008086      -0.00029963
H        4.50202118      -2.86532390       1.84210996       0.00073256      -0.00019453      -0.00042242
H        3.29813477      -0.70853989       1.60459188       0.00021184      -0.00028144       0.00064127
H        0.79218891       2.34648635       0.55870813       0.00012404       0.00043344      -0.00049565
H        2.06963596       4.40072113       0.12112954      -0.00054562      -0.00048075       0.00040613
H        4.24298537       4.29490184      -1.05839012       0.00008866       0.00044908       0.00028580
H        5.11762899       2.10431211      -1.81321409      -0.00013441      -0.00079248       0.00050240
H        3.83754415       0.04735593      -1.38837365      -0.00054786       0.00051925       0.00040769
H       -1.98870438      -1.38163400       1.77582089       0.00070401      -0.00076566       0.00151328
H       -4.44016452      -1.43851951       2.07707553      -0.00046422      -0.00135034       0.00106993
H       -6.74466808       0.79886057       0.69544382      -0.00068805      -0.00011187       0.00007173
H       -6.83476617      -0.61314636      -0.33677468      -0.00051330      -0.00118489      -0.00090304
H       -6.64066263      -0.81691600       1.41151227       0.00054664       0.00052507      -0.00081680
H       -4.63999493       1.64896956      -2.15514204      -0.00044857       0.00031771       0.00016103
H       -1.25852630       1.41856698      -1.95017687      -0.00043711      -0.00019983      -0.00017239
H       -2.67581039       2.44841765      -1.91172392      -0.00023178       0.00051840       0.00014135
H       -2.65118545       1.01125017      -2.94428833      -0.00013354      -0.00057942      -0.00028062
