19
Properties=species:S:1:pos:R:3:forces:R:3 charge=0 spin=1 energy=-14460.56643703795 pbc="F F F"
N        3.22187289       0.41024963       0.29718988       0.00078871       0.00101603       0.00043231
C        2.27186711      -0.22355100       0.17366827      -0.00072836      -0.00131687      -0.00041371
C        1.12941081      -1.10352130       0.07757407      -0.00174822       0.00008538       0.00040381
N        0.55855105      -1.41732095      -1.05773995       0.00036807       0.00058726       0.00180785
C       -1.44642798      -1.31049050      -0.92855174       0.00007688      -0.00192826       0.00126915
C       -1.76768808      -1.41401747       0.41426915      -0.00031329      -0.00057397      -0.00115251
C       -1.17029512      -0.58457809       1.36447197      -0.00002843       0.00006658       0.00013792
C       -0.28130576       0.42975375       1.06855131       0.00152248      -0.00092222      -0.00018727
C       -0.43471215       1.35449280      -0.09985299      -0.00015669       0.00063187      -0.00181493
O        0.35067969       1.54279642      -0.99321230      -0.00065598      -0.00053701       0.00152011
O       -1.59257719       2.03965349      -0.02358997      -0.00003676       0.00145016      -0.00159126
H        1.03084542      -1.79698471       0.90487377       0.00020324       0.00099372      -0.00140960
H        0.79346713      -0.72271808      -1.76585406      -0.00007696       0.00011687       0.00026588
H       -1.74782826      -2.10264302      -1.59918246       0.00012646       0.00055826       0.00050449
H       -1.34154642      -0.34683460      -1.40749861      -0.00034214       0.00084526      -0.00030097
H       -2.25192794      -2.31764421       0.76193719       0.00013274       0.00029869      -0.00054507
H       -1.22100181      -0.90540388       2.39958356      -0.00001393       0.00044650      -0.00058434
H        0.26727928       0.89290616       1.88205973       0.00055026      -0.00016528      -0.00013187
H       -1.59943267       2.65383555      -0.77461682       0.00033187      -0.00165287       0.00179009
