43
Properties=species:S:1:pos:R:3:forces:R:3 charge=0 spin=1 energy=-40174.45571175625 pbc="F F F"
C       -6.41056755      -1.46600725      -0.98181173      -0.00021305      -0.00036573      -0.00055111
O       -5.68978247      -1.58080544       0.22318564      -0.00028638       0.00006200      -0.00020953
C       -4.32186332      -1.50773720       0.13412940       0.00009090      -0.00083952      -0.00002821
C       -3.62307091      -1.65950091       1.32802762       0.00003959       0.00033626       0.00030789
C       -2.24284266      -1.60865274       1.35755133       0.00021848      -0.00066066       0.00043929
C       -1.54468801      -1.39112524       0.17334464      -0.00003913       0.00032039       0.00015451
C        0.66030078      -1.31992654       0.16352858      -0.00040258       0.00034544      -0.00035263
O       -0.09591768      -2.35230819       0.05711880      -0.00047503       0.00066827      -0.00046745
N       -0.09107266      -0.27771251       0.33673721      -0.00088646       0.00032412      -0.00011684
C        2.12508220      -1.42857684       0.10955306      -0.00019852       0.00010458      -0.00000161
C        2.94362159      -0.48944635       0.73091287      -0.00013545       0.00007634      -0.00034427
C        4.31909887      -0.63181999       0.67963262      -0.00000448      -0.00097294       0.00050697
C        4.90578114      -1.69834893       0.00221682       0.00031206      -0.00108168       0.00088798
C        6.40106536      -1.82797023      -0.08042099       0.00041496      -0.00026828      -0.00015229
C        4.07559378      -2.63466438      -0.60918414       0.00022798      -0.00076937       0.00040770
C        2.69881029      -2.51053766      -0.55160122       0.00019088      -0.00062996       0.00092377
C        0.13901454       1.09415430       0.19709827      -0.00064716      -0.00001560      -0.00011461
C        0.89542485       1.61149637      -0.85358499      -0.00131488       0.00066416       0.00010172
C        1.06038082       2.97923232      -0.98894538       0.00228197      -0.00046099       0.00039377
C        0.44959849       3.83186328      -0.08316010      -0.00106624       0.00071832       0.00002878
Cl       0.65552172       5.54935747      -0.25312331      -0.00145703      -0.00026405      -0.00097955
C       -0.32773948       3.33565775       0.94978315      -0.00089225       0.00013174       0.00002802
C       -0.48051900       1.96594764       1.08836672       0.00165642       0.00077651       0.00045610
C       -2.22050560      -1.25320532      -1.02411162       0.00014848       0.00017340      -0.00017985
C       -3.61407461      -1.30504710      -1.03928772       0.00030538      -0.00115995      -0.00018447
H       -6.14704589      -2.26194825      -1.68488535      -0.00005383      -0.00024554      -0.00175798
H       -6.24159466      -0.49685575      -1.46105744      -0.00068826       0.00060290       0.00038453
H       -7.46215680      -1.55523296      -0.72083689      -0.00022494      -0.00014187       0.00046997
H       -4.18414393      -1.82476742       2.23881404       0.00063398       0.00037422       0.00094524
H       -1.70376751      -1.73451149       2.28681903       0.00035623       0.00015193       0.00090669
H        2.50530804       0.34334822       1.26527567      -0.00008715       0.00010531      -0.00019714
H        4.94935688       0.09540384       1.17719843       0.00002093       0.00043113      -0.00178860
H        6.70399502      -2.87349622      -0.12691742       0.00143252      -0.00014733       0.00031244
H        6.88559784      -1.36596710       0.77897623      -0.00009261      -0.00054678       0.00029635
H        6.77946632      -1.33460815      -0.97824773      -0.00065211       0.00027096      -0.00067836
H        4.51500794      -3.47773414      -1.12862895       0.00043209      -0.00016429      -0.00073830
H        2.05587727      -3.24852054      -1.01230824       0.00077996      -0.00079895       0.00080997
H        1.35657960       0.93691465      -1.56387699      -0.00122882       0.00060458      -0.00042928
H        1.65124524       3.38673354      -1.79752837       0.00019302       0.00036622       0.00059001
H       -0.80582779       4.01736246       1.63925524       0.00023390      -0.00018068       0.00113637
H       -1.08541471       1.55676317       1.88700407       0.00000477       0.00031641      -0.00051009
H       -1.67111280      -1.09896903      -1.94323244       0.00034753       0.00049558      -0.00034263
H       -4.12081057      -1.18719116      -1.98645841       0.00072423       0.00129324      -0.00036316
