20
Properties=species:S:1:pos:R:3:forces:R:3 charge=0 spin=1 energy=-21115.525149365156 pbc="F F F"
O        3.81472007      -1.62186692       0.09861985       0.00004011       0.00151146      -0.00073213
C        3.64139860      -0.67938058      -0.61280138      -0.00004530      -0.00128982       0.00065120
C        2.62553379       0.43160031      -0.32799090      -0.00058428      -0.00035748       0.00002249
O        2.56301127       1.40215372      -1.02944870       0.00015772      -0.00004699       0.00032263
O        1.89258304       0.18233146       0.75711304       0.00076782       0.00078782      -0.00046123
C        0.76282329       1.02517435       0.97472524      -0.00004246      -0.00010742       0.00003520
O       -0.34919361       0.21285675       1.21976336      -0.00006650      -0.00024812      -0.00003332
C       -0.84684675      -0.43707272       0.11336032       0.00036367      -0.00016102      -0.00032135
O       -0.35237416      -0.25891054      -0.98428412      -0.00029384      -0.00029745       0.00032995
C       -2.05032368      -1.17894755       0.39889079      -0.00040545      -0.00011932       0.00013751
N       -3.24183071      -0.08479137      -1.48867569       0.00136936       0.00182554      -0.00087316
O       -2.52998838       0.56956028      -2.01132524      -0.00159390      -0.00154420       0.00041762
O       -3.89901046       0.67796022       0.15597474       0.00038768       0.00131509      -0.00113645
H        4.19805734      -0.50426219      -1.54890345       0.00005269       0.00001227       0.00000375
H        0.62235002       1.66412341       0.10628678      -0.00001806       0.00001558       0.00012060
H        0.93300361       1.59111829       1.88554104      -0.00003147      -0.00014134       0.00018024
H       -2.17551805      -2.03962841      -0.24871932      -0.00012123       0.00017653       0.00052845
H       -3.08861389      -0.18529962       0.39545543       0.00037589      -0.00034645      -0.00015055
H       -2.18209266      -1.42440476       1.45056798       0.00020160      -0.00012217       0.00008659
H       -3.45222868       1.52074588       0.31924024      -0.00051422      -0.00086245       0.00087214
