30
Properties=species:S:1:pos:R:3:forces:R:3 charge=0 spin=1 energy=-23804.604915084285 pbc="F F F"
C        2.63615813       2.95265228      -0.54620427       0.00022627      -0.00079863       0.00030606
C        2.70899269       1.47746760      -0.80657563       0.00006164       0.00014558       0.00112923
O        3.30070862       1.02441063      -1.79329841       0.00039386       0.00063441      -0.00055346
C        2.14451083       0.54625260       0.16173793       0.00004381      -0.00001633      -0.00048592
C        1.33305799       0.98734202       1.24082721      -0.00054494       0.00005373       0.00130891
N        0.69257345       1.33923221       2.13246977       0.00036133       0.00016144      -0.00042014
N        1.88483448      -0.76514293      -0.43795291      -0.00051395       0.00081944       0.00026163
C        1.28757040      -1.72852037       0.47671465       0.00026401       0.00067490      -0.00025150
C       -0.21362783      -1.55598299       0.61182775       0.00048181       0.00032330      -0.00074142
O       -0.85725234      -2.19462278       1.38833465      -0.00131130      -0.00047842       0.00070244
O       -0.69675634      -0.64070767      -0.24575512      -0.00006585      -0.00028489      -0.00103291
C       -2.06378027      -0.33055090      -0.14908595       0.00005672       0.00018153       0.00034658
C       -2.51724942       0.42351077       0.91580857       0.00011907      -0.00017785      -0.00017393
C       -3.85968470       0.76735942       0.95330776      -0.00010856      -0.00076515      -0.00042660
C       -4.71804161       0.36268561      -0.06076694      -0.00021169       0.00039628      -0.00020830
C       -4.23428448      -0.38812860      -1.12185277      -0.00062003      -0.00074337      -0.00036234
C       -2.89311717      -0.74171526      -1.17159780      -0.00022906      -0.00003442       0.00034104
O        3.35124703      -1.15209073      -0.48919907      -0.00037676       0.00004372       0.00059675
H        3.37457775       3.46487580      -1.15651090      -0.00026818       0.00004696      -0.00073567
H        2.78917965       3.17565539       0.50963589       0.00081241      -0.00065930       0.00019028
H        1.63673294       3.30472019      -0.81004312      -0.00017046      -0.00019193       0.00000169
H        1.71018920      -1.68588725       1.48655742       0.00086899       0.00008834      -0.00038553
H        1.46435657      -2.72395141       0.07229279       0.00007626       0.00011225       0.00013907
H       -1.82753789       0.73297434       1.68988083       0.00018428      -0.00087317       0.00009583
H       -4.23507094       1.35589142       1.77988069      -0.00050803       0.00051110      -0.00055422
H       -5.76441620       0.63517289      -0.02474278      -0.00020088       0.00161063       0.00112124
H       -4.89993826      -0.70129277      -1.91524708      -0.00015999      -0.00139162      -0.00030989
H       -2.48927130      -1.32429181      -1.98870359       0.00161895       0.00080318       0.00091111
H        3.42062886      -0.25882855       0.28402016      -0.00047600      -0.00014219       0.00001590
H        3.56349015      -0.57740917      -1.30057973       0.00019640      -0.00004951      -0.00082586
