12
Properties=species:S:1:pos:R:3:forces:R:3 charge=0 spin=1 energy=-14313.458543434648 pbc="F F F"
O       -1.83397402      -0.91426401       0.64291884       0.00053987       0.00026992      -0.00031927
N       -1.60751149      -0.33472077      -0.53977295       0.00006182       0.00033663      -0.00009110
N       -0.46285700      -0.66488333      -1.03002691      -0.00025378       0.00036449       0.00003464
O        0.59725060      -0.98990764      -0.19096327       0.00036139       0.00015982       0.00032289
C        1.40176546       0.06989703       0.16205207      -0.00030021       0.00079978       0.00100141
O        2.13657658      -0.00975807       1.08781897       0.00022225       0.00065268      -0.00096204
O        1.28573588       1.08289853      -0.69864706       0.00079724      -0.00199000       0.00009392
O       -1.45660481       1.27339453       0.52538985      -0.00149100       0.00046691      -0.00055734
H       -0.19743346      -0.16940471      -1.87066464      -0.00047735      -0.00027043      -0.00046395
H        1.82100281       1.80878839      -0.35088437      -0.00040852      -0.00014599       0.00039150
H       -1.90447859       0.09893202       1.07817749       0.00006894      -0.00024593      -0.00054141
H       -2.13238196       1.90227804       0.24728197       0.00087950      -0.00039794       0.00109069
