31
Properties=species:S:1:pos:R:3:forces:R:3 charge=0 spin=1 energy=-17831.906347378375 pbc="F F F"
O       -1.01359013      -1.19259199       2.14783489       0.00084107      -0.00086503      -0.00037529
C       -1.40883765      -0.72345872       1.02144468      -0.00076843      -0.00116526       0.00110548
C       -2.73196119      -0.38416568       0.65003349      -0.00048386       0.00159394      -0.00090667
C       -3.02766428      -0.51252783      -0.67679066      -0.00131905      -0.00156076       0.00030209
C       -2.04899825      -0.85882233      -1.65613257       0.00064693       0.00101727      -0.00008863
C       -0.73590707      -0.96771995      -1.31296292       0.00049814       0.00094850      -0.00017994
C       -0.32956170      -0.80046859       0.05425885      -0.00069001      -0.00054233       0.00062149
C        0.93765390       0.05429894       0.34799171      -0.00002419      -0.00054577       0.00007696
C        2.24632491      -0.69802011       0.23548081      -0.00049450      -0.00079394       0.00027355
C        3.10963514      -0.64966046       1.24193125       0.00011906       0.00024986      -0.00044994
C        2.51434375      -1.48679808      -1.01159594       0.00006695      -0.00019728       0.00057854
C        0.90405284       1.31251917      -0.53160612       0.00109473      -0.00000798      -0.00013536
O        1.76379999       1.53184321      -1.34989109      -0.00024958      -0.00019130      -0.00045111
C       -0.26149086       2.26159848      -0.33403297       0.00097078      -0.00034965       0.00048661
C       -0.42263815       2.74718685       1.10713465       0.00057329       0.00091457      -0.00028720
H       -0.09311821      -1.57701602       1.19648030      -0.00096926       0.00052189      -0.00079070
H       -3.48411570      -0.19127141       1.40247507       0.00059439      -0.00101482       0.00100916
H       -4.05242023      -0.37477065      -1.00102931      -0.00242403      -0.00054034       0.00016447
H       -2.35716315      -0.97509026      -2.68592896       0.00000087       0.00019492       0.00057683
H        0.01348626      -1.10386451      -2.08253209       0.00144181       0.00142888       0.00001422
H        0.84484436       0.38901514       1.38379407       0.00138625      -0.00025518      -0.00024371
H        4.05864948      -1.16885180       1.19510205       0.00025030       0.00026906       0.00079430
H        2.89793153      -0.08611225       2.14279171       0.00004248      -0.00067403      -0.00060141
H        3.50762596      -1.93166499      -0.97621511      -0.00011069      -0.00006582       0.00021318
H        1.78621631      -2.29371695      -1.12420419      -0.00039751       0.00104215      -0.00119780
H        2.45191604      -0.84622167      -1.89212550       0.00085732      -0.00005166       0.00108350
H       -0.09456079       3.09733108      -1.01273172      -0.00115058      -0.00111662      -0.00011043
H       -1.17322826       1.74792942      -0.65327597       0.00070148       0.00047366       0.00000292
H       -0.71690254       1.94101789       1.78042943      -0.00127155       0.00160406      -0.00074170
H       -1.19535886       3.51378044       1.15907469      -0.00052887      -0.00036228      -0.00096245
H        0.50359655       3.18358360       1.48449746       0.00079601       0.00004100       0.00021894
