23
Properties=species:S:1:pos:R:3:forces:R:3 charge=0 spin=1 energy=-20607.514547134393 pbc="F F F"
C       -1.74053225       1.32565818       1.14686162       0.00037825       0.00106894      -0.00086498
N       -2.07696617       0.30189073       0.16710186       0.00066254      -0.00030952      -0.00021594
C       -3.49051623      -0.00002079       0.03515941       0.00021381      -0.00041498      -0.00042939
C       -1.18677424      -0.39672789      -0.58121221       0.00029521       0.00031128      -0.00017172
O       -1.50943635      -1.39251200      -1.23328036      -0.00057022       0.00061432       0.00032975
C        0.26486172      -0.07028995      -0.56057286       0.00024914      -0.00018347      -0.00055847
N        1.20145740      -2.19209942       0.08714483      -0.00026116       0.00092657       0.00017831
O        0.41596658      -2.95700751      -0.00518192       0.00000157      -0.00070631      -0.00017540
O        0.55726932       1.32853654      -0.38421486      -0.00132454      -0.00017139      -0.00016296
C        1.82446064       1.69534171      -0.22638310      -0.00047722      -0.00041556       0.00055108
O        2.15732210       2.82731411      -0.02387270       0.00019996       0.00005337      -0.00015427
O        2.67865306       0.65571352      -0.33338716      -0.00067443      -0.00113959      -0.00069714
O        1.01483264      -1.08996908       1.73963931      -0.00006879       0.00015376      -0.00000679
H       -2.47524454       1.27195335       1.95132631       0.00097030       0.00089768      -0.00096077
H       -0.75833979       1.15666021       1.57764753      -0.00047097      -0.00014653      -0.00013400
H       -1.76095629       2.32851008       0.71766196      -0.00072665      -0.00018601       0.00176705
H       -4.04726397       0.92176661      -0.14585381       0.00065794      -0.00089735       0.00053038
H       -3.87575805      -0.46383760       0.94756783      -0.00066848       0.00011647      -0.00014279
H       -3.63530702      -0.68245009      -0.79553620      -0.00036476      -0.00012972       0.00003411
H        0.68420921      -0.41270292      -1.50143084      -0.00014367       0.00016995       0.00097226
H        3.55689452       1.02509053      -0.17418521       0.00196253       0.00108275       0.00069048
H        0.66697769      -0.57095754       0.68156878      -0.00034626      -0.00102216       0.00008343
H        0.21387000      -1.37460079       2.20078177       0.00050565       0.00032744      -0.00046224
