30
Properties=species:S:1:pos:R:3:forces:R:3 charge=0 spin=1 energy=-18270.69822320466 pbc="F F F"
C       -0.22610048      -0.69868835      -0.85775950       0.00060152       0.00011122       0.00021513
C        0.30914831       0.39580456       0.88091458      -0.00065115       0.00016201       0.00006614
C       -0.09258667       1.67712040       0.50500365       0.00014002       0.00029910       0.00017111
C       -1.43089217       1.99331803       0.52093445      -0.00001114      -0.00005724      -0.00072423
C       -1.96753337       3.28376595       0.00922735      -0.00011424       0.00034685      -0.00031785
C        1.74872578       0.00169587       1.08786215       0.00023247       0.00124687       0.00009566
C        2.68851619       0.24662889      -0.08187789       0.00011590      -0.00085299       0.00053303
N        3.76730476      -0.58291603      -0.11130724       0.00118375      -0.00017934      -0.00134933
O        2.52003629       1.11210871      -0.91540150      -0.00174702      -0.00000692      -0.00019989
C        0.25239607      -2.01401834      -0.58850419       0.00092332       0.00018580       0.00076729
C       -0.52879526      -2.91536213       0.06784534      -0.00202492      -0.00098831      -0.00071112
C       -1.86595000      -2.57258838       0.40459572      -0.00004665       0.00060410       0.00051681
C       -2.39421192      -1.36882690       0.04864606       0.00000182      -0.00077451      -0.00115215
C       -1.61474487      -0.40347711      -0.67529579      -0.00031483      -0.00089245      -0.00137173
O       -2.08042342       0.73465414      -0.98313393      -0.00030325      -0.00061816       0.00061977
H        0.33583074      -0.05648261      -1.52161905      -0.00003793       0.00040724      -0.00015676
H       -0.36928692      -0.15682989       1.52532435      -0.00055102       0.00051522       0.00080308
H        0.59379350       2.29148528      -0.06450826       0.00030869       0.00049144       0.00046114
H       -2.08244150       1.43005724       1.17881073       0.00062032      -0.00004697      -0.00018069
H       -2.14549312       3.97409817       0.83783214      -0.00040740      -0.00210662       0.00000400
H       -2.91575720       3.11842812      -0.50081798       0.00087636       0.00003398       0.00074651
H       -1.27021355       3.74845464      -0.68694743      -0.00040634       0.00014920       0.00034965
H        1.80077795      -1.04673020       1.38332990       0.00142700       0.00119602      -0.00112204
H        2.14093870       0.58624986       1.92818448       0.00063340      -0.00018032       0.00045191
H        4.46319716      -0.43302413      -0.82102654       0.00119562       0.00048661      -0.00117170
H        3.91981666      -1.28407642       0.58890765      -0.00062199      -0.00089960       0.00211164
H        1.26321828      -2.27442589      -0.88219984      -0.00003163       0.00050603       0.00006849
H       -0.15394425      -3.90206803       0.30746351      -0.00087145       0.00023796       0.00059484
H       -2.47813708      -3.29587639       0.93003575      -0.00035333      -0.00065598       0.00028177
H       -3.42639861      -1.11796908       0.26070135       0.00023423       0.00127966      -0.00040051
