18
Properties=species:S:1:pos:R:3:forces:R:3 charge=0 spin=1 energy=-16010.198513378835 pbc="F F F"
O       -0.65566010       2.34552171       0.57970676       0.00052716      -0.00039408       0.00021670
N       -0.27932266       1.61477106      -0.34401677      -0.00052178       0.00059223       0.00074971
C       -0.53766622       0.29509908       0.16102831      -0.00022586       0.00039892      -0.00057730
C       -1.97370969      -0.10989392      -0.08022867      -0.00004592       0.00005738       0.00044800
C       -2.35174041      -1.51719944       0.29552186      -0.00158868       0.00027453       0.00059743
O       -2.78178075       0.68241120      -0.50230876       0.00028104      -0.00025893       0.00013730
C        0.56304135      -0.66299327       0.13901848       0.00013499      -0.00020537       0.00044806
O        0.49062904      -1.85032231       0.36297232       0.00047440       0.00011924       0.00011162
C        1.96164185      -0.03625462      -0.08328597       0.00016054       0.00089629      -0.00019605
C        3.09380808      -0.99191009      -0.26139095      -0.00002082      -0.00017503      -0.00048689
O        2.06167657       1.16489867      -0.09584897      -0.00049950      -0.00136668      -0.00039755
H       -0.82368461       1.30128957       1.23879395      -0.00007493       0.00024307      -0.00042631
H       -2.01197817      -1.75862376       1.30183114      -0.00020550      -0.00000225      -0.00141838
H       -1.87089775      -2.22952244      -0.37432133       0.00099985      -0.00059095      -0.00017087
H       -3.43323306      -1.59533583       0.22150265       0.00050114       0.00022974       0.00018986
H        4.02293882      -0.44264538      -0.38046705       0.00003797      -0.00047224       0.00027092
H        2.90080574      -1.61916030      -1.13371080      -0.00043060      -0.00012979       0.00088037
H        3.14064197      -1.66642992       0.59412379       0.00049659       0.00078353      -0.00037645
