25
Properties=species:S:1:pos:R:3:forces:R:3 charge=0 spin=1 energy=-26817.99540033062 pbc="F F F"
C       -3.22754252       0.10344667      -0.20064440       0.00023961       0.00102440       0.00014365
C       -2.52842034      -1.24323164      -0.05596221       0.00042241       0.00014150       0.00026414
C       -1.16469838      -1.27045142      -0.71049231       0.00027176       0.00031362      -0.00022459
O       -0.31631731      -0.26495604      -0.07599545      -0.00038846       0.00027198      -0.00054465
C        0.58041785       0.39759305      -0.89589359      -0.00022005       0.00001853       0.00106129
O        0.51948979       0.31528315      -2.08273985      -0.00046313       0.00044676      -0.00200537
C        1.51260314       1.30315847      -0.14155850       0.00067239       0.00009895       0.00066201
C        0.81938259       2.54297081       0.38701121      -0.00045141      -0.00088689      -0.00001145
F       -0.06668358       2.20873250       1.41445844       0.00045107       0.00166511       0.00018948
C        0.15052395      -0.83043087       1.82900698       0.00064623      -0.00088006       0.00101046
Cl       1.90599043      -2.04601822       0.35254556      -0.00017356       0.00059643       0.00014285
H       -2.66284971       0.89600227       0.29280108      -0.00082928       0.00055818      -0.00068705
H       -4.22449210       0.07737633       0.23883713       0.00075001       0.00094075      -0.00067712
H       -3.32933348       0.37539879      -1.25296176       0.00006947      -0.00157062       0.00124626
H       -2.45286180      -1.52327257       0.99804939      -0.00005346      -0.00028509       0.00002709
H       -3.11733677      -2.03064070      -0.53353250       0.00050832       0.00013070      -0.00038973
H       -0.63652619      -2.21710055      -0.60053806      -0.00004529      -0.00012963       0.00032486
H       -1.22541205      -1.01560253      -1.76567794      -0.00043311      -0.00116080      -0.00034311
H        2.27510504       1.61315009      -0.85516727       0.00045716       0.00049069       0.00090603
H        2.00489978       0.75300429       0.65783706       0.00058388      -0.00100014      -0.00111222
H        1.55028839       3.23647945       0.80286562      -0.00007205       0.00104611       0.00040572
H        0.24119396       3.04529590      -0.39005740      -0.00064742      -0.00049499      -0.00042939
H       -0.12855820      -1.86898986       1.86764209       0.00002347      -0.00085562       0.00054396
H        1.14146597      -0.60086274       2.17585586      -0.00144037      -0.00042541      -0.00154989
H       -0.60680846      -0.07992462       1.98245081       0.00012181      -0.00005456       0.00104693
