16
Properties=species:S:1:pos:R:3:forces:R:3 charge=0 spin=1 energy=-15408.406775024234 pbc="F F F"
N       -2.74254305      -1.16066098      -1.42094867       0.00037382       0.00111451       0.00109985
C       -2.34426864      -0.83758287      -0.39436737       0.00075441      -0.00173381       0.00069333
C       -1.79469696      -0.43578209       0.91187044       0.00003954      -0.00035983      -0.00042743
O       -0.44456458      -0.84791312       1.04834756      -0.00063309       0.00087156      -0.00067604
C        0.46715512      -0.20956402       0.20250740       0.00011864       0.00066140      -0.00019752
C        1.26721274      -1.23940327      -0.57009822      -0.00158416      -0.00060813       0.00008372
O        2.34488907      -1.08258208      -1.05854340       0.00223295      -0.00025853       0.00033884
N        1.09539784       0.83166331       0.88644307      -0.00016892      -0.00026638      -0.00046832
O        2.20063558       1.19490783       0.29338375      -0.00038831      -0.00009318       0.00010468
O       -0.29617722       1.92722051      -0.15422090       0.00038649       0.00060204      -0.00063312
H       -2.34880357      -0.93675688       1.70242448       0.00086025       0.00029916       0.00061962
H       -1.88638269       0.64637320       1.01492965      -0.00004233      -0.00065621      -0.00089801
H        0.69871013      -2.18377663      -0.64910377      -0.00165062       0.00033241      -0.00078026
H        2.54956164       1.91238113       0.84379671      -0.00027333       0.00023359       0.00090888
H       -0.09096173       0.58365431      -0.56784959       0.00009224       0.00038001      -0.00000416
H       -0.44659369       2.83325167      -0.46402113      -0.00011761      -0.00051863       0.00023605
