29
Properties=species:S:1:pos:R:3:forces:R:3 charge=0 spin=1 energy=-23777.44038633231 pbc="F F F"
C       -1.48776525      -2.88884728      -0.79270394       0.00018513       0.00029400       0.00072799
O       -1.29795842      -1.71304022       0.00955577      -0.00004227       0.00191751       0.00000766
C       -2.38902625      -0.94690985       0.15598627      -0.00078029      -0.00044653       0.00040525
O       -3.46755185      -1.19233827      -0.29023138       0.00064585      -0.00129329      -0.00132571
C       -2.07563811       0.27652341       1.03588707      -0.00095166       0.00037319       0.00057657
O       -2.95484031       0.79166000       1.66193380      -0.00110261       0.00007902      -0.00075785
C       -0.63016848       0.72438484       1.20317599       0.00032217      -0.00001558       0.00036108
N        0.20108063       0.60946869       0.01171366       0.00112183       0.00008537       0.00039476
N       -0.10940332       1.22820811      -1.06992296       0.00148156       0.00104065       0.00121956
O       -1.45379073       1.46124441      -1.10706081       0.00118830      -0.00026348       0.00015938
C        1.53548316       0.10470712       0.07072212       0.00129834       0.00071951      -0.00071294
C        2.32169612       0.33716153       1.18823973       0.00079167       0.00101891      -0.00084000
C        3.61317647      -0.16826165       1.22453561      -0.00025027      -0.00006604      -0.00027638
C        4.11394968      -0.88563548       0.14922295      -0.00108781      -0.00093006       0.00076729
C        3.31999152      -1.10098449      -0.96972142      -0.00031460      -0.00106505       0.00117703
C        2.02564550      -0.61221072      -1.01156007       0.00082178       0.00060723      -0.00152610
O       -0.01621332       3.12884479      -0.68907108      -0.00111105      -0.00106320      -0.00150983
H       -0.52268417      -3.38451604      -0.82159854      -0.00027156      -0.00091099       0.00175139
H       -2.24087605      -3.53249699      -0.34254432      -0.00045586      -0.00080886      -0.00101701
H       -1.81025647      -2.60671941      -1.79327086       0.00065675      -0.00005330       0.00085716
H       -0.64730180       1.76438667       1.53232253       0.00081602       0.00083420      -0.00131998
H       -0.17513852       0.09891025       1.96968120      -0.00001749      -0.00069331       0.00058592
H        1.94298998       0.92419472       2.01427259      -0.00206943      -0.00057398       0.00044923
H        4.23205140       0.01315202       2.09300670      -0.00016920      -0.00052810      -0.00022557
H        5.12291871      -1.27447097       0.18074823      -0.00009362       0.00042182      -0.00130894
H        3.70784877      -1.65935235      -1.81132928      -0.00042511       0.00098885      -0.00070687
H        1.39045907      -0.77549286      -1.87120312      -0.00069196      -0.00012648      -0.00033015
H       -1.24922297       2.51926180      -1.04969606       0.00026242      -0.00019335       0.00144224
H        0.47793502       3.55019820      -1.40087040       0.00024263       0.00065146       0.00097475
