24
Properties=species:S:1:pos:R:3:forces:R:3 charge=0 spin=1 energy=-50938.58861169177 pbc="F F F"
C       -4.05462104      -1.84459128      -0.32770439      -0.00142833       0.00063658      -0.00064848
N       -2.61802208      -1.78952593      -0.11161522       0.00148929      -0.00007848       0.00100883
C       -2.00171255      -0.60024393      -0.01655985       0.00050480       0.00084349      -0.00199618
Cl      -0.17516245       1.46928349       0.09748069       0.00085501      -0.00156138       0.00000426
C       -2.27236765       0.63096205       0.11775699      -0.00084154       0.00011476       0.00087161
Cl      -3.21818120       1.91270395       0.59969804      -0.00079449       0.00010994       0.00012052
S        0.22749321      -0.80265599      -0.07540062       0.00027301       0.00016514       0.00045487
O        0.11110174      -1.47733780       1.18740050       0.00061576      -0.00035372       0.00045554
O        0.04537083      -1.37913502      -1.38312844       0.00086509       0.00024685      -0.00076191
C        1.95668860      -0.31708962      -0.11265521       0.00023375      -0.00053937       0.00022694
C        2.56216239      -0.06884895      -1.33304500       0.00008099      -0.00031063       0.00033215
C        3.89439875       0.31471430      -1.34941356      -0.00035078       0.00089404       0.00076730
C        4.59703626       0.44672188      -0.15995461       0.00028568       0.00076163      -0.00020519
C        3.97248485       0.19291056       1.05316359       0.00112540      -0.00108057       0.00070916
C        2.64060237      -0.19043159       1.08488655      -0.00003093      -0.00048407      -0.00025465
H       -4.56078232      -1.29844816       0.46911321       0.00110897      -0.00107480      -0.00055460
H       -4.34842334      -1.41133756      -1.28940675       0.00014982      -0.00058652      -0.00021769
H       -4.38161069      -2.88249104      -0.29076119      -0.00112205       0.00016250       0.00033227
H       -2.06501115      -2.51320338      -0.54436311      -0.00145078       0.00135059       0.00053458
H        1.99987806      -0.18134936      -2.24864947      -0.00043236      -0.00025453       0.00008763
H        4.38354957       0.50930669      -2.29454372      -0.00107560      -0.00038392      -0.00044221
H        5.63645840       0.74723271      -0.17850868       0.00104783       0.00009132      -0.00014184
H        4.52282884       0.29154502       1.97934975      -0.00092919       0.00074388      -0.00035890
H        2.13775058      -0.39599104       2.01868050      -0.00017925       0.00058719      -0.00032409
