22
Properties=species:S:1:pos:R:3:forces:R:3 charge=0 spin=1 energy=-33308.73025661062 pbc="F F F"
C       -1.93423454      -1.93552238       1.20587248       0.00050969      -0.00011379       0.00023410
C       -1.93740915      -1.24974592      -0.13712348       0.00034336      -0.00014126       0.00011136
O       -2.89718245      -0.61171964      -0.52859562      -0.00049772      -0.00001231       0.00097652
C       -0.68962279      -1.36391905      -0.93358571       0.00041890       0.00068254       0.00034198
C       -0.48592703       0.99193278      -0.55637795       0.00049050       0.00015872      -0.00020846
C       -0.90430917       1.57504580       0.75708969      -0.00015661      -0.00024604      -0.00050207
N       -1.53679925       2.86580541       0.52254719      -0.00060130       0.00019626       0.00151505
C        0.88935868       1.07599540      -1.00382483       0.00037236      -0.00100431      -0.00014404
S        1.16693488      -0.49714608      -0.15863514      -0.00067092      -0.00084600       0.00002534
Cl       3.38026053      -0.14199675       0.34220229      -0.00018115       0.00032376       0.00050131
H       -2.84395072      -1.69550200       1.75007748       0.00066263       0.00096279      -0.00045998
H       -1.86517419      -3.01667958       1.06873426      -0.00018334      -0.00051921      -0.00024323
H       -1.05499324      -1.62881950       1.77803128      -0.00066581       0.00129673      -0.00061907
H       -0.82636050      -1.11551625      -1.98189746       0.00149971       0.00053390      -0.00009043
H       -0.24489546      -2.34812555      -0.82285791      -0.00084902       0.00021958       0.00035628
H       -1.28571137       0.86577925      -1.27390094       0.00085918       0.00012375       0.00016848
H       -0.04037303       1.68793723       1.41165540       0.00083736      -0.00012949      -0.00074194
H       -1.62529022       0.93439225       1.26309571      -0.00035458      -0.00077150      -0.00105110
H       -0.94640285       3.49546514      -0.00523547      -0.00106056       0.00036049       0.00121905
H       -2.41999293       2.76366561       0.03883448      -0.00107900       0.00035145       0.00037932
H        1.51357738       1.79776688      -0.48290510      -0.00005362       0.00001071      -0.00055655
H        1.07911746       1.03705695      -2.07068064       0.00035994      -0.00143675      -0.00121176
