15
Properties=species:S:1:pos:R:3:forces:R:3 charge=0 spin=1 energy=-81811.39439948049 pbc="F F F"
N        3.26604130      -1.84780088       0.16318839       0.00020106      -0.00018885       0.00011417
C        2.21701440      -1.61662662      -0.23940754       0.00006259      -0.00125404       0.00003339
C        0.87193767      -1.29384355      -0.73584880      -0.00044408      -0.00061402      -0.00020395
N        0.46416797       0.00226177      -0.24900740       0.00072539      -0.00034431      -0.00012239
C       -0.72162238       0.49661647      -0.79060481       0.00020240      -0.00049063      -0.00032149
Br      -2.34762123      -0.38363872      -0.02469353      -0.00008635       0.00027073      -0.00026428
N        2.00669770       1.44293718      -0.35471040       0.00024107      -0.00031036       0.00053253
O        1.58250701       2.44711198      -0.58487993      -0.00138913       0.00057918      -0.00011038
O        1.63846124       1.10434644       1.52577873      -0.00068274       0.00052179      -0.00024744
H        0.89232361      -1.33548406      -1.83126333      -0.00039641       0.00142781      -0.00036975
H        0.18549475      -2.07773213      -0.39499068       0.00018124      -0.00015459       0.00101494
H       -0.85328176       1.54834931      -0.54305565       0.00061455      -0.00045727      -0.00006237
H       -0.83183451       0.33149341      -1.86278885      -0.00033815       0.00062685      -0.00056427
H        0.90916377       0.40005981       0.88486614      -0.00009859       0.00048678       0.00031996
H        2.37311045       0.57889959       1.86803766       0.00120709      -0.00009872       0.00025118
