12
Properties=species:S:1:pos:R:3:forces:R:3 charge=0 spin=1 energy=-17926.858263017984 pbc="F F F"
N        0.49077241       1.75572654       0.02690760      -0.00023028      -0.00061956      -0.00129460
C        0.50417606       0.45480280      -0.03208690      -0.00026340       0.00044433      -0.00078587
S        1.54973862      -0.80845798      -0.08173144      -0.00033804      -0.00009160       0.00070200
N       -1.00034205       0.25494075      -0.00116463       0.00054702      -0.00034492      -0.00031464
N       -1.47340718      -0.46686081       1.12894549       0.00163514       0.00042430       0.00128471
N       -1.43512129      -0.32713197      -1.21283032      -0.00063379      -0.00036820       0.00047332
H        1.35625908       2.27762315       0.01359718      -0.00062783      -0.00037411       0.00159361
H       -0.82105654       1.54051585       0.03075157      -0.00013448       0.00015181       0.00074068
H       -0.83844371      -1.25973079       1.24913893      -0.00012394       0.00088719      -0.00194471
H       -1.35813215       0.13942558       1.93553160      -0.00066205       0.00043845      -0.00035229
H       -0.90773503      -1.19412579      -1.32862314      -0.00077827      -0.00105204      -0.00081437
H       -2.41247822      -0.55995733      -1.07681592       0.00160993       0.00050429       0.00071217
