29
Properties=species:S:1:pos:R:3:forces:R:3 charge=0 spin=1 energy=-31757.95855794784 pbc="F F F"
C       -1.82031868       0.62279128       2.72655630      -0.00014403      -0.00013616      -0.00005869
C       -1.19066392      -0.39562052       1.78356678       0.00019999       0.00010094      -0.00003301
C       -0.17703611       0.18783397       0.83220124      -0.00010605       0.00009733       0.00002888
C       -0.56303625       1.46570672       0.11088818      -0.00003875       0.00014784       0.00015412
N       -1.79532196       1.24654276      -0.69901057      -0.00012190       0.00023406      -0.00000380
O       -1.95416430       0.13487147      -1.16972747      -0.00009504       0.00001503      -0.00007351
O       -2.53736991       2.18604407      -0.85014962       0.00046374      -0.00025899      -0.00034605
C        0.70557128      -0.80782038       0.04927786      -0.00008944      -0.00018145       0.00000409
C        0.35387097      -2.22607499      -0.32206925      -0.00085324       0.00069446      -0.00029488
C       -0.48957548      -2.30956609      -1.58188490       0.00015525       0.00007014      -0.00012362
O       -1.39616814      -3.08536342      -1.69667819      -0.00068715      -0.00068327       0.00024226
C        1.73534410      -0.39691834       0.96246316      -0.00010598      -0.00015336      -0.00005569
C        3.16458260      -0.62942632       1.06875330      -0.00010636       0.00020250       0.00005802
O        1.10028297       0.53786642       1.59655910      -0.00007300       0.00013247      -0.00002204
Cl       2.15587567       1.02438804      -1.91660002       0.00004278       0.00000215      -0.00008397
H       -2.44705967       0.11583557       3.45804321       0.00013441      -0.00008734       0.00024388
H       -1.05824565       1.18295610       3.27078063       0.00010748       0.00026959       0.00007667
H       -2.45364102       1.33313316       2.19355453      -0.00021248      -0.00015144       0.00002405
H       -0.69643360      -1.18865525       2.35100128       0.00014587       0.00000796       0.00012707
H       -1.95369680      -0.88288702       1.17296984      -0.00004368      -0.00013036       0.00001914
H       -0.77691674       2.27716453       0.79964703      -0.00015390      -0.00005203       0.00008010
H        0.22284812       1.75239230      -0.59998696       0.00005154       0.00010778       0.00013615
H        1.28471122      -2.76017537      -0.54522853       0.00081491      -0.00045347      -0.00000258
H       -0.15774242      -2.76566395       0.47508640      -0.00007946      -0.00013458       0.00036066
H       -0.18992920      -1.63150692      -2.40131828       0.00074313       0.00054580      -0.00009497
H        3.55329297      -0.15082376       0.15428654       0.00004587       0.00009527      -0.00009626
H        3.39721521      -1.69164684       1.01524920      -0.00003251      -0.00028311      -0.00015124
H        3.59192388      -0.16128384       1.95128658      -0.00002707      -0.00013613      -0.00001121
H        1.12759086      -0.22850339      -0.88076736       0.00006476       0.00011847      -0.00010365
