14
Properties=species:S:1:pos:R:3:forces:R:3 charge=0 spin=1 energy=-18164.9204464819 pbc="F F F"
C       -0.31612320       1.24193222       0.49743258       0.00037663      -0.00025955       0.00061897
C        0.31837035       1.52231220      -0.70751095      -0.00004274      -0.00047149      -0.00004333
S        1.92383441      -0.34311348       0.10450305       0.00132901       0.00029993       0.00067019
C       -1.64375294       0.49062977       0.46876036       0.00039522      -0.00047788       0.00050866
O       -1.67476523      -0.49833034      -0.53666204      -0.00002077       0.00042244      -0.00019317
O       -1.02746510      -1.66471199      -0.02498264      -0.00023238      -0.00027617      -0.00130093
H        0.55464053       0.37643687       0.91468569       0.00015159       0.00158558      -0.00071181
H       -0.20096171       1.97760567       1.29161121       0.00065792       0.00124285      -0.00064883
H        1.10092886       2.26308283      -0.77580773      -0.00005289      -0.00087024       0.00069421
H        0.00742548       1.03011448      -1.61904249      -0.00134862      -0.00017047      -0.00000856
H        2.88396284      -1.28988952       0.22412151      -0.00018535      -0.00052809       0.00028995
H       -2.45408302       1.17657643       0.21078133       0.00013057      -0.00061359      -0.00011421
H       -1.85911159       0.04023379       1.43853997      -0.00044672      -0.00072848       0.00012027
H       -0.08319969      -1.49176891      -0.22265985      -0.00071137       0.00084514       0.00011849
