26
Properties=species:S:1:pos:R:3:forces:R:3 charge=0 spin=1 energy=-21347.873092438862 pbc="F F F"
C        0.01389636      -2.77227661       0.57199276       0.00008694       0.00042727       0.00031462
C        0.93001240      -2.08701626      -0.41310131      -0.00019666      -0.00010903       0.00044533
F        0.27664841      -1.95748694      -1.64484812      -0.00000149      -0.00033131       0.00068348
C        1.44642834      -0.72113931       0.04982726      -0.00019093      -0.00019014      -0.00004486
O        2.66788502      -0.58798842       0.16946877       0.00033834      -0.00034919       0.00011058
N        0.62582891       0.30336381       0.36806397       0.00017159       0.00009752      -0.00027628
N        1.78926321       2.07991380      -0.53033774      -0.00012374       0.00064607       0.00057776
O        2.70316141       1.72933122      -1.03833642       0.00041409      -0.00026854      -0.00065334
C       -0.77817657       0.34777974       0.22908206       0.00001364      -0.00055167       0.00017631
C       -1.41920282       0.27721973      -1.00638086       0.00022266       0.00020589      -0.00037011
C       -2.79976405       0.38144519      -1.08131244       0.00014365      -0.00005205       0.00047537
C       -3.55587624       0.57419805       0.06591800       0.00008793       0.00054137      -0.00012073
C       -2.91969253       0.67102272       1.29594643      -0.00012892       0.00002414       0.00031874
C       -1.54140845       0.56571569       1.37671412      -0.00017520      -0.00062994      -0.00022196
O        2.00385470       2.05329825       1.37068742       0.00068197      -0.00035115       0.00013224
H       -0.24655226      -3.76282394       0.20106884       0.00022019       0.00043609      -0.00024539
H        0.52778213      -2.88241604       1.52827235      -0.00043295       0.00020836      -0.00090906
H       -0.89950598      -2.19990883       0.72623087       0.00076634      -0.00011332      -0.00029037
H        1.82649726      -2.67888312      -0.59743410      -0.00035796      -0.00072377      -0.00015641
H       -0.83399205       0.13293711      -1.90288412      -0.00045058       0.00020354      -0.00042024
H       -3.28660654       0.31677357      -2.04606575       0.00024870      -0.00015783       0.00048691
H       -4.63267718       0.65882030       0.00077856       0.00011708      -0.00031125       0.00002561
H       -3.49805478       0.83020195       2.19678712       0.00017076      -0.00004082       0.00012978
H       -1.03533719       0.63331638       2.33190343      -0.00055822       0.00052212      -0.00060311
H        1.26120540       1.19414837       1.12463948      -0.00020222       0.00020755       0.00038484
H        2.83829309       1.57759357       1.50509942      -0.00086544       0.00066009       0.00005067
