27
Properties=species:S:1:pos:R:3:forces:R:3 charge=0 spin=1 energy=-17200.8818211424 pbc="F F F"
C       -4.74351352       0.23009671       0.27695654       0.00103441      -0.00017328       0.00082328
C       -3.52216122      -0.47980523       0.11779699      -0.00025854       0.00074018      -0.00040169
O       -3.78794544      -1.73678975       0.05468670      -0.00072001      -0.00076862      -0.00153810
C       -2.14696872      -0.00444474      -0.03239011       0.00019266       0.00014479       0.00008675
C       -1.81608433       1.30838982       0.28631291      -0.00059019       0.00013799      -0.00036853
C       -0.50717480       1.74384744       0.15199755      -0.00037795       0.00020276      -0.00133888
C        0.48141486       0.87767539      -0.29814626       0.00039756      -0.00043653       0.00070880
C        1.91469534       1.33786500      -0.42588133      -0.00008304       0.00034288       0.00096519
N        2.81360726       0.63285091       0.47063159      -0.00136729      -0.00122865       0.00150111
C        3.50616666      -0.47036597       0.07134686      -0.00003246      -0.00084309       0.00054995
C        4.28928871      -1.17188937       1.15565982       0.00127359       0.00064994      -0.00002105
O        3.49080540      -0.87056628      -1.07773993       0.00014052      -0.00182917       0.00060144
C        0.14600980      -0.43736418      -0.62283301       0.00131290      -0.00061138       0.00104827
C       -1.15729656      -0.87511414      -0.49400238       0.00072534       0.00045820       0.00011136
H       -4.93342845      -1.20312882      -0.04409605       0.00001373       0.00004047      -0.00085594
H       -5.19241805       0.03716218       1.25022940       0.00055634       0.00048617       0.00093657
H       -4.86555152       1.24790997      -0.07330005       0.00113740       0.00018093       0.00150949
H       -2.58428886       1.97846808       0.64925476      -0.00101951       0.00022115      -0.00139414
H       -0.25029308       2.76638496       0.40293246       0.00003540      -0.00095061      -0.00030296
H        2.27819001       1.15343840      -1.43606423      -0.00129605      -0.00047373       0.00119490
H        1.98352190       2.40845030      -0.22916764      -0.00032325       0.00057373       0.00062890
H        2.76536110       0.83762175       1.45364394      -0.00004975       0.00076686      -0.00115744
H        4.44854969      -0.55311737       2.03796276      -0.00031867       0.00022464      -0.00067811
H        5.24779306      -1.48148100       0.74654239       0.00057518       0.00063668      -0.00099927
H        3.74468413      -2.07010375       1.44873083       0.00003175       0.00158580      -0.00063550
H        0.91788945      -1.10305536      -0.98966692       0.00030636      -0.00153526      -0.00015730
H       -1.43327285      -1.88792494      -0.75455757      -0.00129632       0.00145709      -0.00081708
