21
Properties=species:S:1:pos:R:3:forces:R:3 charge=0 spin=1 energy=-97350.41259677467 pbc="F F F"
O        2.46936702      -1.69552287      -0.36888285       0.00036059      -0.00067262       0.00120003
C        3.33188789      -0.90587006      -0.02372608      -0.00017087       0.00008109      -0.00016369
O        4.59852304      -1.07001052      -0.41780298       0.00124128       0.00020371      -0.00092719
C        3.15303205       0.32621531       0.85070399      -0.00059908      -0.00016157       0.00038626
O        1.89558102       0.51813853       1.34603578      -0.00029132       0.00028321       0.00051930
S        0.27031782       0.92379533      -0.10490487      -0.00010058      -0.00111661      -0.00093525
O       -0.22247028       1.83108153       0.87439296       0.00041067       0.00088293      -0.00093939
O        1.28837155       1.04953829      -1.09905231       0.00059971      -0.00089288       0.00049219
N       -1.06210853       0.78905050      -1.12943501      -0.00044775       0.00022739       0.00101687
C       -2.38048176       0.90587055      -0.70686061      -0.00113305      -0.00006519       0.00012988
Br      -3.18983901      -0.80936046       0.04547857      -0.00089567      -0.00001537      -0.00046680
N        0.13970383      -0.73533003       0.53059025       0.00042680      -0.00143807      -0.00046549
H        4.62468238      -1.85795772      -0.98088463       0.00136877       0.00076183      -0.00019108
H        3.90275690       0.22906642       1.64904504      -0.00100404       0.00049666      -0.00110934
H        3.49490654       1.16032810       0.21732281       0.00092341      -0.00156583      -0.00012138
H       -0.86415438       0.38098878      -2.03008133       0.00043235       0.00109762       0.00042230
H       -3.05144203       1.13173149      -1.52537014      -0.00002985       0.00104177      -0.00123751
H       -2.47374049       1.60201867       0.11551673      -0.00041231      -0.00078189       0.00121387
H       -0.82514622      -1.07528269       0.56650734      -0.00029285       0.00022760       0.00103283
H        0.82100723      -1.30970698      -0.01779729       0.00016843       0.00069267       0.00040081
H        0.70501543      -0.57377218       1.41503466      -0.00055429       0.00071354      -0.00025721
