18
Properties=species:S:1:pos:R:3:forces:R:3 charge=0 spin=1 energy=-14431.495882520336 pbc="F F F"
C        1.58124350       1.58023813       0.28267351       0.00030187       0.00011494       0.00025641
N        2.48459716       0.50711005      -0.10804044      -0.00017392      -0.00005479       0.00006160
C        1.98531249      -0.55738024      -0.95775456      -0.00031383       0.00031858       0.00022538
C        0.80649518      -1.22991567      -0.56854761      -0.00001507       0.00003379       0.00006578
O        0.30008309      -1.14493566       0.57279914       0.00003355       0.00013302       0.00065356
O       -3.80249392      -0.46270251       1.01974889       0.00148087       0.00098784       0.00022176
C       -2.66051289      -0.49108285       0.66597810      -0.00117093      -0.00042149      -0.00018902
C       -2.12780840       0.51861402      -0.28369193       0.00020254      -0.00025721      -0.00090541
N       -1.69173477       1.29080065      -1.01294874       0.00029679      -0.00147602      -0.00058467
O        2.73461172      -0.36851209       1.09813833       0.00004179      -0.00006785      -0.00037124
H        0.64624053       1.22499601       0.71535918       0.00008823      -0.00004865       0.00048044
H        2.10048305       2.24265270       0.97233184       0.00029174       0.00005198       0.00023237
H        1.35655905       2.12532822      -0.63240721       0.00001225       0.00032329       0.00033776
H        2.34412431      -0.57761108      -1.97532036      -0.00050705       0.00037105      -0.00012183
H        0.38264704      -1.93801845      -1.29954615      -0.00047946       0.00020552       0.00022102
H       -1.91167663      -1.22413927       0.99003671      -0.00035603      -0.00028504      -0.00011923
H        2.73952491      -1.16506965       0.19234536      -0.00002509       0.00010569      -0.00043575
H        1.79172459      -0.59939232       1.35920595       0.00029188      -0.00003453      -0.00002889
