19
Properties=species:S:1:pos:R:3:forces:R:3 charge=0 spin=1 energy=-10840.145860235862 pbc="F F F"
N       -1.86223607       1.26048929       0.15986726       0.00075264      -0.00041513      -0.00010782
C       -1.54638230       0.10631887       0.07789541      -0.00083483       0.00127220       0.00089668
O       -3.12447406      -0.58475224      -0.38073898       0.00047219       0.00033885       0.00037077
C       -0.58203045      -1.01871223       0.26467115       0.00019872      -0.00030284      -0.00018433
N        0.73659209      -0.63497769       0.70098485       0.00025677      -0.00046823       0.00035378
N        1.48979037       0.02704960      -0.30281278      -0.00018605      -0.00081510      -0.00017140
C        1.53134519       1.46816303      -0.10041323      -0.00011635      -0.00077324       0.00016089
C        2.83032451      -0.53657921      -0.33073426      -0.00000178      -0.00034912      -0.00051438
H       -2.97263676       0.69136699      -0.21640109      -0.00030528       0.00036128      -0.00034608
H       -3.16933023      -0.85946439      -1.30655838       0.00027678      -0.00060829      -0.00032009
H       -1.02711853      -1.69778287       0.99359724       0.00054078       0.00008936       0.00011760
H       -0.49369573      -1.55883763      -0.67695775      -0.00024491       0.00023741      -0.00009520
H        0.71085236      -0.09769064       1.56349129      -0.00062714       0.00096305      -0.00086620
H        2.03348752       1.73049242       0.84569908       0.00036808      -0.00070805       0.00000181
H        0.52348998       1.87586871      -0.09038554       0.00005852      -0.00007344       0.00016376
H        2.08722316       1.92582620      -0.91816389      -0.00007872      -0.00042810       0.00021800
H        2.76581958      -1.61049786      -0.48790682       0.00056657      -0.00038558      -0.00053262
H        3.37885264      -0.35045974       0.60432783      -0.00062266       0.00118534       0.00002552
H        3.38613672      -0.08971060      -1.15530138      -0.00047341       0.00087968       0.00082926
