26
Properties=species:S:1:pos:R:3:forces:R:3 charge=0 spin=1 energy=-19769.47910982198 pbc="F F F"
C       -3.51145721      -1.50879219      -0.85185455       0.00039595       0.00145216      -0.00068465
N       -2.50342283      -0.45877053      -0.78593435       0.00047928      -0.00003830      -0.00139503
C       -1.24264967      -0.87661564      -0.32554536      -0.00029925       0.00061985       0.00083515
F       -1.33788921      -1.40184065       1.01355396      -0.00019787       0.00094611       0.00040535
N       -0.32385571       0.19841925      -0.31049773       0.00057183       0.00003160      -0.00081777
N       -0.69091817       1.48790594       1.24606215      -0.00128971      -0.00039525      -0.00033811
O       -1.67701322       1.33122731       1.73999534       0.00030751       0.00109239       0.00013183
C        1.05156984      -0.06421841      -0.23913485       0.00024750      -0.00061078      -0.00033088
C        1.92594442       0.98427144      -0.54005531      -0.00002638      -0.00044702      -0.00073197
C        3.29478808       0.79163080      -0.46692646      -0.00032879      -0.00033193      -0.00050933
C        3.81543897      -0.44076739      -0.09556842      -0.00029762      -0.00005631       0.00042546
C        2.94826361      -1.47898042       0.21116737       0.00003247      -0.00046010      -0.00021273
C        1.57493927      -1.29866951       0.15236620       0.00018994       0.00002088       0.00018375
O       -0.86792215       2.52990415      -0.50755761       0.00080333      -0.00073819      -0.00005401
H       -3.15185132      -2.30302481      -1.50683933      -0.00190890      -0.00038234       0.00065311
H       -4.41908184      -1.10091630      -1.29263043      -0.00023549      -0.00121888      -0.00046889
H       -3.74923156      -1.94455302       0.12204086      -0.00095286      -0.00168314      -0.00031266
H       -2.83484570       0.34614876      -0.27099200      -0.00102988       0.00077203       0.00026084
H       -0.89223148      -1.73195050      -0.91118119      -0.00002166       0.00037927       0.00098164
H        1.51324474       1.93959182      -0.83858294       0.00133188       0.00048456       0.00056417
H        3.96019629       1.61049049      -0.70896563      -0.00003485      -0.00048209      -0.00017525
H        4.88571309      -0.59064112      -0.04321172       0.00013298       0.00201849       0.00094338
H        3.34213342      -2.44219919       0.51044458       0.00102171      -0.00035160      -0.00173923
H        0.91759844      -2.11195600       0.42714677       0.00011901      -0.00047841       0.00074890
H       -0.65326932       1.28888699      -0.71506921       0.00140425       0.00074747       0.00089429
H       -1.76715078       2.82299873      -0.69329014      -0.00041455      -0.00089048       0.00074213
