24
Properties=species:S:1:pos:R:3:forces:R:3 charge=0 spin=1 energy=-27379.37430948246 pbc="F F F"
C       -1.99905920       2.08560047       0.01079549      -0.00001316       0.00003765      -0.00029336
C       -2.64642867       0.71995043       0.00558349      -0.00030987      -0.00008348       0.00004790
O       -3.74887970       0.54067044      -0.47075426       0.00020221      -0.00005605       0.00007833
N       -1.94924738      -0.31712486       0.59200291       0.00007211      -0.00001199      -0.00002671
C       -2.51084506      -1.65682693       0.55989815      -0.00015579       0.00014909       0.00018801
C       -0.61338732      -0.19895863       1.08166157       0.00007181       0.00016364      -0.00015786
S        0.61710176      -0.73539535      -0.16326943      -0.00005951       0.00005314      -0.00033573
O        0.51686591       0.31498091      -1.24718444      -0.00001062       0.00000611      -0.00000249
C        2.09763405      -0.43360270       0.73529117      -0.00026066       0.00037891      -0.00007143
N        3.44887674      -0.65759366      -1.37926033       0.00022422       0.00049327       0.00011619
O        4.53775133      -0.79538773      -1.22723638      -0.00046860      -0.00017098       0.00005487
O        3.08165365       1.12460636      -1.13039070      -0.00052610      -0.00042750      -0.00065563
H       -1.83763302       2.43957891       1.03121694      -0.00028905      -0.00002860       0.00004504
H       -1.04370777       2.06354251      -0.51130415      -0.00012898      -0.00006681      -0.00019888
H       -2.67913300       2.76487585      -0.49375527       0.00007275       0.00014124       0.00014069
H       -2.48318421      -2.09407508       1.56041752      -0.00016622       0.00020675       0.00007217
H       -1.95293249      -2.30162892      -0.12300723       0.00008350      -0.00025977       0.00008620
H       -3.53838400      -1.58967504       0.21991544      -0.00001792      -0.00011007      -0.00012344
H       -0.46619415      -0.83440458       1.95849365       0.00019655      -0.00004523      -0.00007214
H       -0.36093557       0.82717206       1.33935099      -0.00004113      -0.00011271       0.00008609
H        2.54265196      -1.37020019       1.06545318       0.00031381      -0.00080002      -0.00028300
H        1.97054969       0.25571017       1.57498065       0.00021789       0.00020396       0.00086858
H        2.74576155       0.58889899      -0.18198095       0.00017967       0.00027668      -0.00016787
H        2.18157493       1.16891656      -1.53093801       0.00081290       0.00006289       0.00060475
