24
Properties=species:S:1:pos:R:3:forces:R:3 charge=0 spin=1 energy=-17604.482714818892 pbc="F F F"
C       -0.24213710      -0.85966477      -1.07334345       0.00003101      -0.00042230      -0.00057085
C       -1.68464160      -1.25283478       0.48279366       0.00071119       0.00012438      -0.00145343
C       -2.56704324      -2.25820856      -0.16356798       0.00057519       0.00022890       0.00047094
O       -1.40082158      -0.94135120       1.56030315       0.00114559       0.00048920       0.00174204
C        1.13851044      -0.95091032      -0.77091609       0.00025046      -0.00004942      -0.00021475
C        1.79346442       0.07963754      -0.14379227       0.00054298      -0.00036889      -0.00020221
N        3.14824709       0.05837091       0.16811929      -0.00066773      -0.00017770       0.00056979
C        3.87390149      -1.19185088       0.11941932      -0.00082214       0.00003886       0.00021085
C        1.06202539       1.26792859       0.12032233       0.00034746       0.00038203      -0.00051578
C       -0.26680347       1.38819292      -0.17280078       0.00039206       0.00001712      -0.00044975
C       -0.96994854       2.59655087       0.14963117       0.00003355       0.00067067      -0.00036589
N       -1.50913944       3.57669907       0.41272297       0.00077162      -0.00059167       0.00159168
C       -1.00704791       0.29859844      -0.75429922       0.00053528      -0.00019639      -0.00048241
O       -2.28843607       0.27808673      -0.75625894      -0.00034136      -0.00038299      -0.00106961
H       -0.67835182      -1.60415625      -1.72259054      -0.00055413      -0.00053418       0.00007781
H       -2.11744135      -3.23843170      -0.00030160       0.00005026      -0.00012378      -0.00114882
H       -3.52319071      -2.20152050       0.35648799       0.00083947      -0.00079971       0.00033678
H       -2.70983329      -2.04693785      -1.21187138       0.00049151       0.00127638       0.00086676
H        1.66810390      -1.85309542      -1.04402357       0.00005990      -0.00008610      -0.00002575
H        3.39045776       0.65013210       0.94533145      -0.00051053       0.00131374      -0.00001635
H        4.88120568      -1.02790924       0.49536527      -0.00065049       0.00131880      -0.00061145
H        3.40327615      -1.98631891       0.71174517      -0.00145985       0.00009890      -0.00004841
H        3.96128031      -1.53988842      -0.91123429      -0.00150580      -0.00111135       0.00111592
H        1.57651349       2.10903164       0.57151832      -0.00026540      -0.00111469       0.00019312
