14
Properties=species:S:1:pos:R:3:forces:R:3 charge=0 spin=1 energy=-9843.311551824105 pbc="F F F"
O       -1.93389361      -0.77986974      -0.35122395       0.00010363      -0.00024096       0.00035564
C       -1.49131230       0.15232143       0.38950040       0.00100195       0.00028076       0.00046616
C       -0.23340769       0.61379559      -0.08277074       0.00011089      -0.00044029      -0.00010640
N        0.11059408       1.97668668      -0.10156966      -0.00028847      -0.00051760       0.00157397
C        0.93469571      -0.29565853       0.10304220       0.00050313      -0.00015339      -0.00103500
C        0.77714089      -1.79362813       0.23810458       0.00025911      -0.00167245      -0.00088522
O        2.03895632       0.20947482       0.13631788      -0.00078708      -0.00055886       0.00068761
H       -0.88852128      -0.38037438      -1.01844624      -0.00051692       0.00030790      -0.00007124
H       -2.07811925       0.51595877       1.23313976       0.00014800       0.00075229      -0.00097329
H        0.99921530       2.16891083       0.34102738      -0.00070714      -0.00069320      -0.00020352
H       -0.62302712       2.61462588       0.15870451       0.00040037      -0.00131993      -0.00042479
H       -0.16745018      -2.10656457       0.67445232       0.00109780       0.00142164      -0.00081646
H        0.85654838      -2.24764546      -0.75105761      -0.00086402       0.00123848       0.00164979
H        1.60952074      -2.15251318       0.83870917      -0.00046136       0.00159579      -0.00021731
