28
Properties=species:S:1:pos:R:3:forces:R:3 charge=0 spin=1 energy=-32767.14196002582 pbc="F F F"
O        0.24229041      -2.16840521      -1.24375530      -0.00080254      -0.00051516      -0.00080265
C        1.34137540      -1.97252722      -0.80441243       0.00104354       0.00012690       0.00128754
O        2.29072470      -2.92081101      -0.73511056      -0.00031075       0.00019075      -0.00091929
C        1.85751711      -0.66865027      -0.23514609       0.00085114       0.00037086       0.00013705
C        0.93815685       0.47276362      -0.57229293       0.00008979       0.00000962       0.00015308
O        0.70478393       0.87779196      -1.65773732       0.00000375      -0.00002996      -0.00011194
N       -0.10276415       0.92886056       0.51793352       0.00006955      -0.00012220      -0.00005015
C        0.30383550       1.01985359       2.00931961       0.00008984       0.00001221       0.00004892
O        0.44130729       2.33105066       2.35402771       0.00001885      -0.00004546      -0.00001009
C       -1.37499499       0.23763146       0.27460490       0.00027645       0.00027950       0.00003294
C       -1.63215789      -0.97049827       0.89703056       0.00004469      -0.00059274       0.00022784
C       -2.82667527      -1.62057849       0.63251322       0.00016630      -0.00008063       0.00015228
C       -3.74340871      -1.06410799      -0.24679144      -0.00027072      -0.00030824      -0.00001903
C       -3.46535372       0.14357090      -0.86949759       0.00026081       0.00034590      -0.00002336
C       -2.27239426       0.80118905      -0.61301318      -0.00043823       0.00015092      -0.00019700
Cl       2.65599960       2.15607863       0.46118722       0.00007263      -0.00001034       0.00003723
H        1.91217309      -3.73026378      -1.11071708      -0.00010209       0.00002481       0.00050265
H        2.82212529      -0.42647620      -0.67750013      -0.00066943      -0.00013815       0.00022677
H        2.04012070      -0.78627868       0.82964434      -0.00023056       0.00002256      -0.00038623
H        1.21931702       0.44406508       2.12365139      -0.00018600       0.00010599      -0.00000106
H       -0.51705850       0.58218394       2.56919917       0.00010462       0.00012895      -0.00004007
H        1.29738190       2.61719442       1.94265067      -0.00012100      -0.00009499      -0.00001218
H       -0.91011155      -1.41389243       1.57111357       0.00006777      -0.00015180       0.00003346
H       -3.03570803      -2.56827233       1.10962316       0.00002684      -0.00017662       0.00007549
H       -4.67376728      -1.57640139      -0.45186545       0.00004271       0.00000913       0.00001787
H       -4.17464835       0.57592315      -1.56199449      -0.00014198       0.00016145      -0.00017436
H       -2.03254204       1.73253377      -1.10940469      -0.00000929       0.00033537      -0.00016244
H       -0.21457404       1.91417250       0.26160964       0.00005323      -0.00000869      -0.00002321
