20
Properties=species:S:1:pos:R:3:forces:R:3 charge=0 spin=1 energy=-14465.553321922936 pbc="F F F"
O        0.61135455       1.79836297      -1.23124020      -0.00084876       0.00043010      -0.00196100
C        0.74696121       1.80747478      -0.01763890      -0.00018301       0.00043003       0.00102194
C        1.04565593       0.70837056       0.86767714       0.00000996       0.00097937      -0.00008991
N        1.12098820      -0.65763657       0.50370134      -0.00026686       0.00043402       0.00009564
C        0.65741651      -1.11741924      -0.80879784      -0.00006395       0.00011140       0.00033114
C       -0.84884246      -1.34125585      -0.74670946       0.00039348      -0.00074996       0.00009194
N       -1.60498201      -0.11183306      -0.65264405       0.00041052      -0.00063993      -0.00027857
C       -2.46129611       0.13016806       0.36836020       0.00000114      -0.00024431      -0.00023614
O       -2.76649274      -0.66440521       1.23090988      -0.00055032       0.00139949      -0.00019063
O        2.76547227      -0.64762174       0.29852983       0.00017517      -0.00014045      -0.00038971
H        0.67108906       2.76641411       0.53596676       0.00043670       0.00065938       0.00051485
H        0.81820319       0.86335840       1.91646718      -0.00038649      -0.00029485       0.00072458
H        1.13068147      -2.08206485      -0.98689860      -0.00085614      -0.00023380      -0.00074876
H        0.92183041      -0.42867067      -1.60928511      -0.00092170       0.00032385      -0.00012087
H       -1.11385054      -1.94883624       0.11794110       0.00040685      -0.00116019      -0.00010128
H       -1.13296187      -1.89277372      -1.64626433       0.00038291       0.00007466      -0.00007800
H       -1.32093060       0.66254027      -1.23276893       0.00094612      -0.00086325       0.00079971
H       -2.87602425       1.15171361       0.33222208       0.00095297      -0.00006036       0.00014634
H        2.48471219       0.43721741       0.69918341       0.00011195      -0.00004970       0.00037067
H        3.08903558      -1.19519302       1.03249852      -0.00015046      -0.00040577       0.00009802
