28
Properties=species:S:1:pos:R:3:forces:R:3 charge=0 spin=1 energy=-29711.912360472237 pbc="F F F"
C        0.14020423       2.60076627       0.45637129       0.00045132       0.00032722       0.00005190
O        0.37452150       1.18598228       0.65160185       0.00012743       0.00069633      -0.00096174
C        1.34454708       0.64298918      -0.19643388       0.00039000       0.00210880      -0.00096575
O        1.99820161       1.35441648      -0.88836438      -0.00086590      -0.00092380       0.00178012
C        1.47177367      -0.84129114      -0.05884364       0.00058744       0.00138837      -0.00110305
C        2.86652414      -1.30860357      -0.47189131      -0.00037962      -0.00037776      -0.00104154
C        3.88694084      -0.86104187       0.47829639      -0.00045516       0.00028809      -0.00119125
N        4.65837285      -0.50045358       1.24748970       0.00122091      -0.00081290       0.00184392
C       -4.19208314       0.13415626       0.28019264      -0.00066901      -0.00031879       0.00003216
C       -3.34522457      -1.12989824       0.24411481       0.00025096       0.00042541      -0.00022305
C       -1.87165253      -1.03123570       0.61612365       0.00065182      -0.00134941       0.00060075
O       -1.19373191      -2.02342945       0.76093514       0.00062359       0.00045266      -0.00005629
C       -1.35310847       0.29746459       1.09757763      -0.00063446      -0.00029175       0.00047868
Cl      -1.35354841       0.38040294      -1.50039730      -0.00101736      -0.00071408       0.00007152
H       -0.35341077       2.74509220      -0.50187438      -0.00092093      -0.00042665       0.00053332
H        1.09273044       3.11941804       0.48622083      -0.00022409       0.00088196       0.00027533
H       -0.48715826       2.91685208       1.28558955       0.00072854       0.00053221      -0.00083952
H        0.71574503      -1.27387674      -0.71535961      -0.00237689      -0.00055357      -0.00015306
H        1.22149727      -1.16010961       0.95113834      -0.00129334      -0.00022989       0.00189674
H        3.11767406      -0.91856265      -1.45814201       0.00009522      -0.00111346      -0.00030559
H        2.89248139      -2.39680675      -0.51881624       0.00061754       0.00057381      -0.00005200
H       -3.81490262       0.88374916      -0.41317284       0.00199681      -0.00031597      -0.00037047
H       -4.24845888       0.56376157       1.28313211      -0.00000274       0.00119097       0.00010159
H       -5.21237050      -0.10947750      -0.01558739      -0.00026445      -0.00100652       0.00039021
H       -3.74263492      -1.87778386       0.93637644       0.00009893       0.00052551      -0.00133569
H       -3.36500309      -1.58259975      -0.74664033      -0.00018544      -0.00056221      -0.00053407
H       -0.83235210       0.22650890       2.04490701       0.00101794      -0.00131916       0.00167874
H       -1.97132393       1.16650050       0.94756591       0.00043072       0.00092466      -0.00060199
