30
Properties=species:S:1:pos:R:3:forces:R:3 charge=0 spin=1 energy=-17702.043847268335 pbc="F F F"
C        0.91089512      -2.36580502      -0.23389128       0.00034986       0.00004516      -0.00032838
C        1.66472094      -1.06635681      -0.22632289      -0.00017522      -0.00031713       0.00087362
O        2.57152909      -0.76636413      -0.94916485      -0.00028728      -0.00041562      -0.00040264
N        0.68017422       0.17994934       0.27328625       0.00005675      -0.00045183       0.00009438
C       -0.74742199       0.01812201       0.13148470      -0.00009484       0.00058632      -0.00018211
C       -1.32942010      -0.19845629      -1.11183358      -0.00011389       0.00049904      -0.00010049
C       -2.70200067      -0.36717343      -1.20759231      -0.00034284       0.00107672      -0.00005208
C       -3.49318302      -0.32700195      -0.06783473      -0.00063796       0.00146587       0.00017473
C       -2.90872708      -0.11972161       1.17262666      -0.00011127       0.00024941       0.00026839
C       -1.53627444       0.05381739       1.27267960      -0.00007027       0.00024584      -0.00033081
N        1.24251110       1.44156715      -0.07495881       0.00016441      -0.00045830       0.00034464
C        0.77582209       2.47369298       0.83442057       0.00002807      -0.00035214      -0.00006071
C        1.06274383       1.80859396      -1.46991980       0.00022609      -0.00002436       0.00053065
O        2.11525456      -1.05936254       1.58502208      -0.00014323      -0.00048843      -0.00011734
H        0.19997426      -2.44157803       0.58388810       0.00079564       0.00020408      -0.00002853
H        0.39323295      -2.48186666      -1.18635780       0.00024544       0.00029923      -0.00049782
H        1.65315626      -3.15382450      -0.13395169       0.00059398       0.00067992       0.00130252
H       -0.70977919      -0.24848900      -1.99719250       0.00012897      -0.00193733       0.00005319
H       -3.15426578      -0.53756396      -2.17589693       0.00019805       0.00075391      -0.00022038
H       -4.56363052      -0.46385764      -0.14675996      -0.00038003      -0.00020904      -0.00020953
H       -3.51948066      -0.09603887       2.06535112      -0.00025446      -0.00117027       0.00037837
H       -1.06740401       0.20802642       2.23707453       0.00011466      -0.00196120      -0.00002660
H       -0.29562616       2.69689760       0.72946336       0.00035286       0.00126375      -0.00040188
H        0.97794240       2.17518922       1.86323690      -0.00038962       0.00021332       0.00024264
H        1.33860693       3.38362815       0.62805282      -0.00003460      -0.00087550      -0.00201293
H        1.40394937       0.99523044      -2.10454210       0.00034860       0.00032695       0.00023454
H        1.69838776       2.67201342      -1.66411782      -0.00073749       0.00058300      -0.00014833
H        0.02697145       2.08026927      -1.71690166      -0.00000656      -0.00042088       0.00109563
H        1.18214763      -0.14983851       1.27557613       0.00075232       0.00010105      -0.00014712
H        2.99575364      -0.66601839       1.58200588      -0.00057611       0.00048849      -0.00032559
