21
Properties=species:S:1:pos:R:3:forces:R:3 charge=0 spin=1 energy=-14932.702959527394 pbc="F F F"
C        3.29448486      -0.28931591       0.04335163       0.00017539      -0.00065234       0.00105928
N        2.10281411      -1.09577092      -0.19014329      -0.00089925      -0.00071678       0.00095448
N        0.92379524      -0.30907536      -0.34693914      -0.00027184      -0.00056404      -0.00017380
C        0.29860056      -0.04168911       0.95834683      -0.00019898       0.00026838      -0.00057706
C       -0.97577907       0.75821924       0.78486021      -0.00045452       0.00023988      -0.00011517
C       -0.81359479       2.10970117       0.28801449      -0.00047631       0.00043612      -0.00014829
O        0.15547532       2.52045465      -0.33460168       0.00000930      -0.00115639       0.00081461
N       -2.27773093      -1.29764915       0.02012872      -0.00020115      -0.00003179       0.00045060
O       -1.67787032      -2.19297852       0.29724900      -0.00050653       0.00067419      -0.00015153
O       -1.60353750      -0.47366870      -1.43966566       0.00028710       0.00040745       0.00056834
H        3.43683672       0.49584094      -0.71163870       0.00022864      -0.00101047       0.00038059
H        3.23218637       0.18619936       1.02186058       0.00140057       0.00034496      -0.00042856
H        4.16648961      -0.94294234       0.04270166       0.00060385       0.00213087      -0.00018406
H        2.21162556      -1.62343592      -1.04564325      -0.00075456       0.00047640      -0.00156960
H        1.15212534       0.60102170      -0.75330133       0.00049206      -0.00069895       0.00034090
H        0.09601665      -1.01372742       1.41871547       0.00111825      -0.00028195      -0.00092015
H        0.99314070       0.47438861       1.63547931       0.00034015      -0.00051818      -0.00031383
H       -1.66617584       0.70838846       1.62342236      -0.00085184       0.00058107      -0.00074426
H       -1.67045962       2.78806761       0.46832062      -0.00087098       0.00096956       0.00019302
H       -1.48677311       0.28801860      -0.57028499       0.00013230      -0.00019158       0.00005846
H       -0.64675986      -0.72698699      -1.41906282       0.00069841      -0.00070634       0.00050596
