9
Properties=species:S:1:pos:R:3:forces:R:3 charge=0 spin=1 energy=-44437.12302079122 pbc="F F F"
O       -0.78403536      -1.76387641      -0.93540649      -0.00145233       0.00040472       0.00011329
C       -0.50364607      -0.69933618      -0.61665644       0.00006546      -0.00086137      -0.00004609
F       -1.72385146       0.47892195      -1.09153294      -0.00071639       0.00077692      -0.00002141
C        0.79243559       0.09140557      -0.61706477       0.00060251      -0.00086523       0.00039538
Cl       0.69094409       1.77342117      -0.17882835      -0.00041392      -0.00099919       0.00012440
Cl       1.92325259      -0.80795022       0.39026601       0.00116715       0.00119217       0.00038921
Cl      -1.51776845      -0.11431382       1.41741552      -0.00007386       0.00036180      -0.00105848
H        1.13932690       0.03202806      -1.64805379       0.00027421       0.00054651      -0.00025910
H       -1.94339784       0.45283988       0.03779125       0.00054723      -0.00055646       0.00036284
