22
Properties=species:S:1:pos:R:3:forces:R:3 charge=0 spin=1 energy=-16645.330613593247 pbc="F F F"
C        3.19335304      -0.59580173      -0.16383961       0.00036063       0.00084906      -0.00012638
C        1.75720649      -0.16953320      -0.37667109       0.00056794       0.00046010       0.00020785
C        1.41790126       1.27333154      -0.09154935      -0.00041725      -0.00034835      -0.00044993
O        0.45899253       1.82092132      -0.57274654      -0.00052770      -0.00030886      -0.00017361
C        1.01113080      -0.88032861       1.49653942       0.00027793      -0.00066132      -0.00012693
C       -0.28950614      -0.41700807       1.43132084       0.00022464      -0.00067760      -0.00075451
C       -1.09401861      -0.67247982       0.31839292      -0.00033327      -0.00001259       0.00041420
C       -2.25839910       0.23753443       0.06584299      -0.00040302       0.00057123       0.00055944
O       -3.15181322       0.38878588       0.84854328       0.00026370      -0.00013919      -0.00086593
O       -2.23896066       0.86898487      -1.12218438      -0.00019692       0.00085784       0.00072408
C       -0.64035917      -1.52131213      -0.66696262      -0.00089969       0.00080188       0.00004369
O        1.07340221      -0.74591175      -1.27009802      -0.00049232       0.00040729      -0.00046366
H        3.63535199      -0.14371736       0.72384155      -0.00003989       0.00085917       0.00024944
H        3.77349802      -0.28832611      -1.03654365      -0.00046298       0.00038492       0.00028147
H        3.25841940      -1.67983472      -0.08857839      -0.00069691      -0.00064335      -0.00003547
H        2.09777161       1.80384062       0.60083017       0.00130111      -0.00026092       0.00036983
H        1.64741807      -0.56184572       2.31331454      -0.00033051      -0.00078258       0.00033670
H        1.26611886      -1.83955490       1.06610013       0.00057918      -0.00056204      -0.00008297
H       -0.61622674       0.35503707       2.11976628       0.00008101       0.00052794      -0.00135752
H       -1.31830265       0.94191763      -1.42680007      -0.00001933      -0.00089542      -0.00035859
H       -1.13236483      -1.54946402      -1.62867026       0.00079797       0.00006111       0.00020202
H       -0.07543316      -2.40387524      -0.40928814       0.00036562      -0.00048836       0.00140664
