25
Properties=species:S:1:pos:R:3:forces:R:3 charge=0 spin=1 energy=-19186.32715776587 pbc="F F F"
O       -3.70505608      -0.69826269      -1.23373670       0.00154492      -0.00028926       0.00102256
C       -2.82799356      -1.05561928      -0.49710658      -0.00121182       0.00090348      -0.00073138
O       -3.03611934      -1.93397665       0.50872718       0.00066485      -0.00029374      -0.00020505
C       -1.38486309      -0.61537296      -0.56589096       0.00040383       0.00018934      -0.00039778
C       -0.97867040       0.03959267       0.74340240       0.00032047       0.00037293      -0.00015098
C       -1.42253475       1.32794623       1.00538606       0.00007169      -0.00059616      -0.00060985
C       -1.14909470       2.41402597       0.17757614      -0.00041215      -0.00009946      -0.00016089
C        0.07932158       2.58223089      -0.45899275      -0.00023214       0.00010192       0.00025248
C        1.18040291       1.75085737      -0.24597102      -0.00001108      -0.00023721       0.00004884
C        1.13195954       0.39133979       0.02201088       0.00023347       0.00057323      -0.00048875
C        2.26961201      -0.23817593       0.76878315       0.00041115       0.00024791       0.00139449
N        2.79541504      -1.46991321       0.08002996       0.00116929      -0.00048066      -0.00076351
O        3.99079546      -1.65534400       0.11916712       0.00016905      -0.00024823      -0.00039831
O        1.98516127      -2.21315646      -0.43380631       0.00023213       0.00080721       0.00102460
H       -3.97462461      -2.17006187       0.47779480      -0.00062949       0.00017714       0.00002719
H       -0.78196988      -1.50572200      -0.76391767      -0.00012015       0.00068261      -0.00031210
H       -1.30174223       0.07849344      -1.39974097      -0.00052440      -0.00076326       0.00037937
H       -0.97184051      -0.65576078       1.57925160      -0.00004852       0.00041553      -0.00019852
H       -1.88621884       1.54219359       1.96481285       0.00022827      -0.00035314       0.00031584
H       -1.76212772       3.30377112       0.26635279       0.00024912      -0.00006777      -0.00005309
H        0.27854900       3.57272267      -0.85190316      -0.00009218       0.00005828      -0.00008255
H        2.13349276       2.26085018      -0.11895389      -0.00006907      -0.00032637       0.00017115
H        0.67617196      -0.27179137      -0.68508181      -0.00067297      -0.00004166       0.00044779
H        3.12161557       0.42371151       0.90005384      -0.00184565      -0.00148065      -0.00079180
H        1.95659859      -0.60255826       1.74886305       0.00017133       0.00074810       0.00026028
