23
Properties=species:S:1:pos:R:3:forces:R:3 charge=0 spin=1 energy=-27816.178749971103 pbc="F F F"
C        4.11075283      -0.27554415      -0.28867826      -0.00098110       0.00049223       0.00117574
C        2.77716178      -0.89985359      -0.64491476      -0.00020759       0.00011753      -0.00007487
O        1.86060853      -0.88269150       0.43887775       0.00078145       0.00065968       0.00088137
O        1.53535515       0.48778346       0.70376751      -0.00039139       0.00025544      -0.00110208
S       -0.38173783       0.89475595      -0.03161268      -0.00005820       0.00001488      -0.00033732
O       -0.07746886       2.24899936       0.31413776      -0.00023249       0.00012793      -0.00084715
O       -0.10112882       0.12484751      -1.20586727       0.00116500      -0.00056387      -0.00036214
N       -2.09550036       1.04834270      -0.10427980       0.00028733       0.00065187      -0.00037911
C       -2.81497366       0.09752280      -0.94201538       0.00005428       0.00007946       0.00074024
C       -2.83270888      -1.21531791      -0.27870318       0.00005425       0.00079727      -0.00014152
N       -2.78116689      -2.21008171       0.29044837       0.00112619      -0.00146528       0.00052983
N       -0.53099755      -0.11082766       1.47207903      -0.00032105      -0.00108228      -0.00082969
H        3.97997271       0.77576740      -0.03901024      -0.00114953       0.00020055      -0.00020657
H        4.79434272      -0.35009319      -1.13691459      -0.00138013       0.00004884       0.00123186
H        4.55952258      -0.78553402       0.56451479      -0.00003656      -0.00099117       0.00023528
H        2.88507339      -1.96291570      -0.87225726      -0.00010211      -0.00001253      -0.00001850
H        2.32175786      -0.40665435      -1.50562481      -0.00058891       0.00051063       0.00014387
H       -2.29833371       2.00760897      -0.35082512       0.00088030       0.00081245       0.00078622
H       -2.37623698      -0.02859298      -1.93365818       0.00026380      -0.00124272       0.00030992
H       -3.84417682       0.43983544      -1.04819625       0.00020559       0.00085962       0.00135557
H       -1.30989194       0.21792285       2.03468696       0.00136744      -0.00056476      -0.00047738
H       -0.63356038      -1.09480737       1.22161573      -0.00087123       0.00083232      -0.00122585
H        0.53302511       0.11641768       1.69776985       0.00013448      -0.00053803      -0.00138793
