18
Properties=species:S:1:pos:R:3:forces:R:3 charge=0 spin=1 energy=-18710.915400126076 pbc="F F F"
O       -3.29648960       0.95622733       0.53793106      -0.00028548      -0.00059259      -0.00043255
N       -2.43307070       0.18994278       0.66937404       0.00161878       0.00009491      -0.00015491
O       -1.75186461      -0.28460126       1.47348085      -0.00059039       0.00046451       0.00053937
O       -1.18378803       0.54248579      -0.94751662      -0.00010084       0.00000692      -0.00061881
C        0.09344012       0.30320965      -0.61269839      -0.00000284      -0.00010314      -0.00015007
C        0.95796738       1.38556871      -0.42311437       0.00015002      -0.00062539      -0.00006490
C        2.27737880       1.17568342      -0.06845031      -0.00003634       0.00009278       0.00048993
C        2.72102444      -0.12319603       0.10716591      -0.00054388      -0.00012959       0.00016418
F        4.00800370      -0.32962909       0.45382887      -0.00116778      -0.00043654      -0.00053027
C        1.89101053      -1.21173968      -0.06149930      -0.00014998      -0.00018227      -0.00027667
C        0.56910727      -0.99630034      -0.42187320       0.00039255       0.00053389       0.00021605
O       -2.68669547      -1.21479858      -0.64977630       0.00066218      -0.00015123       0.00081741
H        0.57464128       2.38610728      -0.57513994       0.00132022      -0.00060153       0.00000013
H        2.96527752       1.99803218       0.07224576      -0.00075835       0.00106974       0.00028644
H        2.28013266      -2.20941487       0.08818652      -0.00069457      -0.00069979       0.00004826
H       -0.10150439      -1.83532629      -0.55926037       0.00026116       0.00144989      -0.00075397
H       -3.53363739      -1.05036413      -1.08440615       0.00062204      -0.00118083       0.00041327
H       -1.88142351      -0.46316690      -1.07280807      -0.00069638       0.00099020       0.00000709
