22
Properties=species:S:1:pos:R:3:forces:R:3 charge=0 spin=1 energy=-28357.88651982441 pbc="F F F"
C        1.68640544      -2.44012621      -0.12014800       0.00007797       0.00034167       0.00051128
S        0.12965782      -1.56555452      -0.34238952      -0.00001186       0.00036516       0.00036166
O       -0.44134076      -1.38364769       1.02409584      -0.00038448       0.00015276      -0.00018239
C        0.82167961       0.03950503      -0.83001548      -0.00045431       0.00021470       0.00061171
C       -0.29678391       0.94681140      -1.32931216       0.00035295      -0.00030519      -0.00047214
N       -1.16530471       1.44485313      -0.27594745       0.00061274      -0.00176452       0.00001610
C       -2.29388242       0.83217849       0.17026282       0.00120710      -0.00080649      -0.00005520
O       -2.88483659       1.13650496       1.17799835      -0.00044586      -0.00071386       0.00143796
O       -2.71241498      -0.13842925      -0.67450223       0.00040759       0.00079942      -0.00018170
N        1.76208556       1.91403152       0.35742145      -0.00142469      -0.00058123      -0.00050403
O        2.81274910       2.15303985       0.08712061       0.00113318       0.00069476      -0.00019630
O        1.87131789       0.39961554       1.54674722       0.00076206      -0.00010755      -0.00040869
H        1.42662302      -3.43472299       0.23724827      -0.00171165       0.00065418       0.00033409
H        2.20134302      -2.51632970      -1.07793766      -0.00013493      -0.00031728       0.00116131
H        2.29278913      -1.92360150       0.62177577       0.00047564       0.00109902      -0.00203773
H        1.56577982      -0.12937899      -1.61301005      -0.00074431       0.00078804       0.00090394
H        0.14130567       1.80801819      -1.84116345       0.00102443       0.00063195      -0.00063295
H       -0.93005925       0.44731184      -2.06288943       0.00001294      -0.00011728      -0.00153617
H       -0.77795907       2.07300692       0.40624891      -0.00042388      -0.00105570       0.00002004
H       -3.46535980      -0.55090974      -0.23202494      -0.00013797       0.00043052      -0.00020052
H        1.40511501       0.15805062       0.46278247      -0.00018157      -0.00004310      -0.00069280
H        1.08365040       0.29347311       2.10547865      -0.00001189      -0.00036018       0.00174256
