28
Properties=species:S:1:pos:R:3:forces:R:3 charge=0 spin=1 energy=-85211.94701521877 pbc="F F F"
C       -1.32048101       2.13938830      -1.17843761      -0.00049644      -0.00003867       0.00023081
C       -0.50940588       1.92115369      -0.11993535      -0.00057098      -0.00020515      -0.00078451
C       -0.29207559       2.95611595       0.94838108      -0.00054405      -0.00059131       0.00038672
C       -0.07830246       0.59138595       0.11463674       0.00041093       0.00030501      -0.00000207
N        0.89368927       0.32079282       1.05370074      -0.00049297       0.00009658       0.00078145
C        1.70830473      -0.81555231       0.91994051       0.00081970      -0.00013188      -0.00056464
Br       3.09495881      -0.64442997      -0.50859089      -0.00061568       0.00062201       0.00044566
C       -1.88689873      -0.16541398       1.03617277       0.00000813       0.00017046      -0.00033187
C       -1.51059647      -1.49932080       1.36123914      -0.00028492       0.00034689       0.00039762
C       -1.73211508      -2.51740009       0.48518651      -0.00124249      -0.00035894       0.00047436
C       -2.41486268      -2.25654636      -0.73633261       0.00021242      -0.00043104       0.00012857
C       -2.88945757      -1.01562762      -1.02512438       0.00060238      -0.00009453      -0.00022852
C       -2.72318725       0.08206405      -0.10191402      -0.00002844       0.00023881      -0.00005449
O       -3.15942092       1.23453576      -0.35698063      -0.00085897       0.00020106      -0.00033023
H       -1.76137367       3.10987761      -1.35517564       0.00059307       0.00051191      -0.00058084
H       -1.42466472       1.40988460      -1.96784053      -0.00042787       0.00005246      -0.00112350
H       -0.68837461       2.62792661       1.91416079      -0.00055843      -0.00000702       0.00057674
H       -0.79559915       3.88260055       0.68121923       0.00172800       0.00072427       0.00104803
H        0.76756165       3.18949863       1.08856423      -0.00085083      -0.00039367      -0.00100854
H       -0.13563657      -0.13069242      -0.69244336      -0.00049599       0.00019095       0.00007801
H        1.29690538       1.11574560       1.52262860       0.00106283      -0.00098579      -0.00007131
H        1.12813340      -1.68270587       0.62668559       0.00066984       0.00089639       0.00039174
H        2.27136404      -1.00967774       1.82441166       0.00034515      -0.00125792      -0.00062029
H       -1.87479821       0.58844947       1.81288265      -0.00042382      -0.00110768       0.00013244
H       -1.00565573      -1.68505656       2.30266941      -0.00016721       0.00050716       0.00015729
H       -1.41713168      -3.52666154       0.71663664       0.00086149       0.00111949       0.00002437
H       -2.57476997      -3.07082343      -1.43334653      -0.00008822      -0.00069199       0.00012535
H       -3.44988933      -0.81721091      -1.93060478       0.00083309       0.00031221       0.00032170
