26
Properties=species:S:1:pos:R:3:forces:R:3 charge=0 spin=1 energy=-15132.178802072323 pbc="F F F"
C        0.05116616       2.48912850      -0.85273113      -0.00063024       0.00007013       0.00009700
C        0.64292124       1.67671295       0.15557633       0.00093116      -0.00044317      -0.00029880
O        1.73293593       1.06313308      -0.03212097      -0.00113584       0.00082027       0.00026611
C        2.16300930       0.07215741       0.98377620       0.00061077      -0.00065665      -0.00093547
C        3.30593425      -0.69400256       0.38474683      -0.00099469       0.00047745      -0.00069221
N       -1.19543395       0.01698288      -0.76025277      -0.00072714       0.00034365       0.00022055
C       -0.47689875      -1.02779586      -1.44949586       0.00049247      -0.00017315      -0.00016694
O        0.39694313      -1.77583507      -0.59932015       0.00079969      -0.00016861      -0.00061690
C       -1.93735348      -0.42960097       0.25490326       0.00020167       0.00002496       0.00029167
C       -2.81484032       0.60361186       0.94315589       0.00048899      -0.00054830       0.00007922
O       -1.94085099      -1.59605570       0.69937098       0.00012321      -0.00024073      -0.00014083
H       -0.71261349       1.61188363      -1.10765742       0.00066419       0.00011782      -0.00011410
H       -0.53510942       3.31830996      -0.46968489       0.00004842       0.00005723       0.00016565
H        0.69604386       2.71680460      -1.69464491      -0.00005989       0.00000344      -0.00027463
H        0.13480630       1.52516130       1.10838557      -0.00018760       0.00000936       0.00000656
H        1.30265790      -0.56726681       1.16250240      -0.00066012       0.00001488       0.00022513
H        2.44193253       0.65253684       1.86338686       0.00013462       0.00066196       0.00165961
H        3.66969121      -1.41452378       1.11651987      -0.00048273      -0.00071662       0.00114107
H        2.95560964      -1.23998228      -0.48877616      -0.00051182      -0.00025093      -0.00046865
H        4.12681164      -0.03188294       0.11100461       0.00027981       0.00067882       0.00009603
H        0.15755396      -0.58141036      -2.21979443       0.00008337      -0.00014314      -0.00038795
H       -1.17531467      -1.71957140      -1.93846180      -0.00035383      -0.00043708      -0.00027029
H       -0.23561898      -2.16420241       0.03393498      -0.00028430      -0.00043142       0.00011959
H       -2.68450463       1.60411682       0.52999540       0.00011086       0.00094077      -0.00059504
H       -2.60378121       0.60766262       2.01413376       0.00115924       0.00017114       0.00014427
H       -3.85818717       0.31086769       0.82407754      -0.00010010      -0.00018196       0.00044931
