24
Properties=species:S:1:pos:R:3:forces:R:3 charge=0 spin=1 energy=-29542.584222637663 pbc="F F F"
C        1.26973839      -0.33714129      -0.02128875      -0.00072916      -0.00002983       0.00149691
Cl       1.86812845       1.98908311      -1.65386355       0.00024532      -0.00030822      -0.00028509
C        2.05185397      -0.84934066       1.13014549       0.00016396      -0.00031429       0.00002878
C        2.94811300      -1.82139470       0.48838721       0.00062124       0.00082039      -0.00018985
N        3.57955274      -2.58787498      -0.08084435      -0.00046520      -0.00096298       0.00098995
C       -0.06110343      -0.93768914      -0.34339558       0.00026348       0.00082869      -0.00140643
O       -0.21136170      -2.05202001       0.10081824      -0.00015925      -0.00178772       0.00070977
C       -0.98804522      -0.23762266      -1.29581203       0.00005950       0.00034939      -0.00035998
C       -2.43026465      -0.32658915      -0.80606475       0.00020300       0.00076554      -0.00029019
O       -3.26006089      -0.92157281      -1.43733304      -0.00023957       0.00049278      -0.00066884
C       -2.73077904       0.39554156       0.48801606       0.00004288      -0.00007916      -0.00020471
C       -4.16608307       0.22490475       0.95090099      -0.00026638      -0.00052894       0.00007098
N        0.51774239       1.43274448       0.91340268      -0.00087652       0.00075686       0.00034222
N        0.29852140       2.40919938       1.33898406       0.00094024      -0.00091357       0.00017280
H        1.73106778       0.46255447      -0.80301918       0.00011114      -0.00023911      -0.00076551
H        1.46685519      -1.33974677       1.90778238       0.00049840       0.00079091      -0.00022995
H        2.66602489      -0.03929062       1.52805145       0.00131771       0.00013000      -0.00056717
H       -0.67168708       0.79788561      -1.44196305      -0.00006399       0.00085764       0.00095538
H       -0.92724921      -0.75906050      -2.25191003       0.00006227      -0.00008616       0.00006245
H       -2.47853850       1.45043941       0.33586727      -0.00113182      -0.00006183      -0.00013962
H       -2.02681302       0.02759914       1.24388212      -0.00044844       0.00013586       0.00030295
H       -4.39575678      -0.82791254       1.10691052      -0.00035344      -0.00101346       0.00027094
H       -4.33671384       0.76020211       1.88421026       0.00094992       0.00046257      -0.00132667
H       -4.86037178       0.60266180       0.20231557      -0.00074533      -0.00006528       0.00103099
