22
Properties=species:S:1:pos:R:3:forces:R:3 charge=0 spin=1 energy=-16074.12561451207 pbc="F F F"
C       -0.84556869       0.00811264      -0.59015891      -0.00036561      -0.00031215       0.00062223
C        0.24323272       0.64071227      -1.29609759      -0.00058295       0.00003571       0.00043643
C        0.76582453       1.05558276       0.18102422      -0.00014582      -0.00061255      -0.00045887
O        0.62241987       2.26278376       0.51717852      -0.00023881      -0.00067976      -0.00068008
C        2.15053469       0.42178872       0.46194106       0.00046677       0.00011202      -0.00073636
N        2.22479073      -1.00016762       0.03428137       0.00019554      -0.00019710      -0.00018760
O        3.05000620      -1.30826179      -0.79958094      -0.00016144       0.00037003       0.00022727
O        1.41000636      -1.76925219       0.52046579       0.00121135       0.00008385       0.00057270
O       -1.91977353       0.69881485      -0.36595098      -0.00034439      -0.00040764      -0.00011207
C       -2.84223984       0.16264094       0.61960517      -0.00003044      -0.00017090      -0.00036167
C       -3.68438799      -0.94820049       0.04038834      -0.00001631       0.00019794      -0.00116066
H        0.06638863       0.28925545       0.82582970       0.00007547      -0.00178201       0.00131686
H       -0.83277611      -1.05134221      -0.34641972      -0.00063118      -0.00027620       0.00120653
H        0.87353775      -0.03456206      -1.86637929       0.00062667       0.00141186       0.00051007
H       -0.02275469       1.55244332      -1.81756812       0.00054224      -0.00050683      -0.00083256
H        2.33282132       0.45289034       1.53227745      -0.00005045       0.00176264      -0.00071924
H        2.91013971       0.96591552      -0.08859449       0.00050617      -0.00012936       0.00005329
H       -2.25239612      -0.15887549       1.48095050      -0.00125545       0.00007636       0.00037614
H       -3.44449311       1.01808357       0.91172305       0.00167994      -0.00012653       0.00116481
H       -4.39167345      -1.29783536       0.79251172       0.00011813       0.00049636      -0.00099635
H       -3.07801275      -1.80125538      -0.26495052       0.00016687      -0.00009630      -0.00091577
H       -4.24646622      -0.59157156      -0.82201635      -0.00176626       0.00075065       0.00067488
