29
Properties=species:S:1:pos:R:3:forces:R:3 charge=0 spin=1 energy=-21296.010894272593 pbc="F F F"
O        1.93325974      -1.97895239       0.79463707       0.00065606       0.00069486       0.00000790
C        2.29415424      -1.11555714      -0.07592001      -0.00042767       0.00086795       0.00056969
C        3.05278850      -1.32721384      -1.25242483      -0.00002638       0.00073563       0.00092445
C        3.85084973      -0.28574414      -1.62697638      -0.00035482       0.00063225       0.00009388
C        3.85038253       0.98177131      -0.96257353      -0.00065713       0.00024354       0.00014889
C        2.96241634       1.24270879       0.02933786       0.00067871       0.00058198      -0.00092343
C        2.03847828       0.21748822       0.43488925       0.00021880      -0.00034323       0.00017160
C        0.62486865       0.70164190       0.68342235       0.00005964      -0.00094821      -0.00057071
O        0.45010037       1.80108014       1.15232971      -0.00080116       0.00059053       0.00059520
C       -0.52698676      -0.18418011       0.26553974       0.00008096      -0.00082117      -0.00017695
C       -1.85273457       0.22422693       0.90855746      -0.00028811      -0.00140920       0.00042701
C       -1.86421188      -0.05606510       2.40261727      -0.00080365      -0.00076408       0.00023354
N       -2.96045221      -0.49177950       0.29027144       0.00034722      -0.00143007       0.00103855
C       -3.49373757      -0.23464746      -0.92490662      -0.00126290       0.00057822      -0.00012171
O       -4.37358974      -0.87244393      -1.45567181      -0.00067840      -0.00069742       0.00005912
O       -2.92504668       0.85550406      -1.50373266      -0.00024990       0.00140617      -0.00106145
H        1.89391907      -0.75661353       1.43570294       0.00070798       0.00047091      -0.00059516
H        3.11655009      -2.30609010      -1.70622065       0.00166298      -0.00103540       0.00145483
H        4.54268959      -0.43025863      -2.44838733       0.00065125      -0.00016875      -0.00176225
H        4.52677420       1.75092858      -1.30820599       0.00057823      -0.00004948      -0.00069796
H        2.85501138       2.23177885       0.45388565       0.00166280      -0.00098971       0.00039731
H       -0.30975966      -1.23333222       0.46668465       0.00046797      -0.00014041       0.00016991
H       -0.60307292      -0.07732820      -0.82145823       0.00000626      -0.00150924       0.00008208
H       -2.00375943       1.28960231       0.74147918      -0.00031073       0.00055780       0.00142992
H       -2.81794230       0.23800406       2.84059996       0.00114764       0.00059822      -0.00017201
H       -1.70494139      -1.12065802       2.59678915      -0.00090761       0.00078465      -0.00056121
H       -1.07301262       0.50471671       2.89676589      -0.00049539       0.00047733      -0.00084550
H       -3.30643144      -1.32957462       0.72651110      -0.00196191      -0.00052584      -0.00102360
H       -3.39195356       0.96822709      -2.34190264       0.00029945       0.00161207       0.00070794
