20
Properties=species:S:1:pos:R:3:forces:R:3 charge=0 spin=1 energy=-90332.172333753 pbc="F F F"
C        2.77390390      -1.35539660       1.12366640      -0.00015153      -0.00055176      -0.00031599
O        3.08121389      -0.24899616       0.27148675       0.00039131      -0.00010204       0.00054114
C        2.42919484      -0.23814330      -0.89876281       0.00043421       0.00007378       0.00026153
C        1.18101794       1.73433624      -0.63160978       0.00006189       0.00088821       0.00056139
C        0.10311175       1.40213160       0.28844229      -0.00003779      -0.00011053       0.00009261
C       -1.24489466       2.06976319       0.06015307      -0.00043711      -0.00036710       0.00013619
O       -1.21187901       3.40702967       0.52770913      -0.00008492       0.00000372       0.00042294
S        0.21223482      -0.17411462      -0.57254101      -0.00042884      -0.00011937       0.00000816
Br      -1.86463931      -1.36975511       0.27481530       0.00030575       0.00025335      -0.00032328
H        3.03880787      -2.29197275       0.62960639      -0.00011504      -0.00023617      -0.00070260
H        3.37175549      -1.22694294       2.02017451       0.00033125      -0.00036719      -0.00111377
H        1.70940955      -1.35846557       1.36492291      -0.00006690      -0.00044804      -0.00082362
H        2.24020877      -1.21611171      -1.33732191      -0.00006923      -0.00032532       0.00182372
H        2.88090320       0.44402300      -1.60560197       0.00059004       0.00047483       0.00081970
H        0.91606709       2.19601003      -1.57391027      -0.00107172      -0.00048865       0.00002603
H        2.16031303       1.95237989      -0.23240995       0.00037001       0.00060934      -0.00006885
H        0.37628501       1.33160498       1.33936316       0.00108799       0.00020397      -0.00031052
H       -2.02944685       1.47797540       0.53203440      -0.00093443       0.00091967       0.00097504
H       -1.44749461       2.09650363      -1.01112542      -0.00008377      -0.00060322       0.00031532
H       -1.47429269       3.41753111       1.45229880      -0.00009116       0.00029244      -0.00232498
