19
Properties=species:S:1:pos:R:3:forces:R:3 charge=0 spin=1 energy=-15224.454310618354 pbc="F F F"
C        1.75876647      -1.55370618      -0.42589280      -0.00038523      -0.00035603      -0.00084081
C        0.59608261      -1.09249930       0.21764860      -0.00029778      -0.00020449       0.00005830
C       -0.72948848      -1.17179248      -0.49917358       0.00032918       0.00019718       0.00013579
C       -1.85875052      -0.35119482       0.07639907       0.00065068      -0.00024852       0.00096112
O       -2.79216778       0.04849108      -0.56268821       0.00075929      -0.00053105      -0.00039624
O       -1.74786225      -0.18164475       1.40462218      -0.00043672       0.00016342       0.00086214
C        1.71529354       0.33316546       0.08248440      -0.00040108       0.00031851       0.00025172
O        2.24840436       0.63520805       1.14918074      -0.00124687      -0.00034262      -0.00037568
C        0.99949976       1.26651373      -0.87755119      -0.00022567      -0.00026511      -0.00008416
F       -0.18974590       1.71226893      -0.33435703      -0.00105478      -0.00175436      -0.00001921
H        2.46442891      -0.18386239      -0.77225674       0.00142343       0.00027984      -0.00034295
H        2.60625529      -1.89759950       0.15204268      -0.00164620       0.00059478       0.00093995
H        1.72713282      -1.85491657      -1.46889078      -0.00007145       0.00123455      -0.00143818
H        0.56034242      -1.16204412       1.29502261      -0.00012608      -0.00037939       0.00024833
H       -0.65709116      -0.91497137      -1.55542695       0.00059251       0.00107438       0.00012471
H       -1.08199507      -2.20940633      -0.46546952       0.00063804      -0.00006373       0.00023611
H       -2.51048956       0.34756617       1.68101330      -0.00066548       0.00083093       0.00091926
H        0.79137705       0.78690427      -1.83426226       0.00149980       0.00016183      -0.00053757
H        1.64238751       2.13587013      -1.01838450       0.00066448      -0.00071010      -0.00070257
