16
Properties=species:S:1:pos:R:3:forces:R:3 charge=0 spin=1 energy=-12923.788909898078 pbc="F F F"
C       -0.72586995       1.99709303       0.16371292       0.00063005      -0.00040313      -0.00046614
C       -0.73573206       0.60723557       0.22495762      -0.00033098      -0.00007346       0.00016591
C       -2.11641443       0.00181693       0.35640061      -0.00041511       0.00020526       0.00038271
O       -2.77574532      -0.37244048      -0.56983099       0.00041133      -0.00017876       0.00001680
C        0.29903530      -0.39197786       0.07584160      -0.00002702      -0.00004512       0.00012324
C        0.00888414      -1.85589596       0.13724828       0.00070011      -0.00029153       0.00040278
N        1.63265494       0.02396993      -0.11058686      -0.00096905       0.00047451      -0.00048914
O        1.82888803       1.20312171      -0.42894486      -0.00017104       0.00018345      -0.00060825
O        2.53218189      -0.78697741       0.03992743      -0.00048919      -0.00048839      -0.00046980
H       -0.37616717       0.70231657      -0.92579363      -0.00020438       0.00025688       0.00043248
H       -1.67909480       2.51029233       0.17072833      -0.00018219       0.00017055       0.00061000
H        0.18396149       2.55510687       0.02445531       0.00019645       0.00013778       0.00032983
H       -2.48808848      -0.05304019       1.39918056      -0.00023294       0.00054136      -0.00053906
H       -0.36151775      -2.14496223       1.12589970      -0.00062017      -0.00001061      -0.00068776
H        0.92954330      -2.39679346      -0.05594858       0.00067112      -0.00104683       0.00131773
H       -0.73745911      -2.15784535      -0.60128744       0.00103319       0.00056803      -0.00052115
