24
Properties=species:S:1:pos:R:3:forces:R:3 charge=0 spin=1 energy=-16112.541947634241 pbc="F F F"
C       -1.23458449       1.03335796       1.54387318       0.00044629      -0.00000232      -0.00025676
C       -1.35785623       1.15647004       0.05317175      -0.00014702       0.00068235      -0.00014432
O       -1.77207876       2.10851860      -0.54254200      -0.00050678      -0.00021532      -0.00042557
N       -1.87235735      -0.21543603      -0.66770744      -0.00017191      -0.00015983      -0.00003786
C       -1.90507989      -1.56106611       0.01784437      -0.00001821      -0.00025036       0.00039119
O       -0.80121055      -2.29515846      -0.31846391      -0.00052757      -0.00032414       0.00004030
O        0.39361162       0.92507686      -0.50582754       0.00012882      -0.00009714       0.00000219
C        1.30200267       0.17547293       0.01004224      -0.00006354      -0.00010874      -0.00005974
O        1.09451255      -0.82013807       0.72170493       0.00007704      -0.00006914      -0.00021324
C        2.72129303       0.60437842      -0.31010020      -0.00030550      -0.00001140       0.00015318
C        3.78025709      -0.40071601       0.10863382      -0.00012680      -0.00017457       0.00009345
H       -0.62392565       0.19197924       1.85481402      -0.00054555       0.00045577       0.00041162
H       -2.23807311       0.96086102       1.96961240       0.00085164      -0.00014245       0.00008639
H       -0.78450056       1.96039918       1.89173118       0.00042944       0.00032175       0.00006133
H       -2.78928290       0.06072362      -1.01377875       0.00005756       0.00029324      -0.00025955
H       -2.00223512      -1.36956485       1.08843724       0.00120959      -0.00063829       0.00029902
H       -2.79669961      -2.07652892      -0.33700936       0.00014972       0.00023364       0.00058975
H       -0.02323631      -1.88024596       0.13765330      -0.00017632      -0.00031498      -0.00073581
H       -1.24716274      -0.29219300      -1.47146461      -0.00013584      -0.00001090      -0.00082241
H        2.76096739       0.81560675      -1.38047360       0.00059577       0.00064963       0.00004272
H        2.86986090       1.56818355       0.18424436      -0.00026661       0.00004595       0.00033896
H        3.73736739      -0.58891258       1.18018274      -0.00002028      -0.00038943      -0.00024991
H        3.63381439      -1.35603787      -0.39481385      -0.00055565      -0.00043435      -0.00001878
H        4.77533624      -0.03093028      -0.13992426      -0.00037831       0.00066117       0.00071365
