20
Properties=species:S:1:pos:R:3:forces:R:3 charge=0 spin=1 energy=-30590.40299080957 pbc="F F F"
C       -0.36820318       0.06595481      -0.64648087      -0.00023252       0.00020033       0.00040247
C       -1.82750927       0.44696208       0.70034961      -0.00011174       0.00159739      -0.00027427
O       -1.51640909       0.46410489       1.81998708      -0.00135326       0.00020345      -0.00101911
C       -3.11934223       0.13165561      -0.00209018       0.00013078       0.00007436      -0.00020244
Cl      -3.35871406      -1.62466318      -0.03386216       0.00167106       0.00035853       0.00168270
C        0.79176782      -0.72220051      -0.43592459       0.00003601       0.00081562       0.00038074
C        1.96348549      -0.09318383      -0.15999815       0.00045520      -0.00050475      -0.00000694
N        3.16890678      -0.89192338       0.08469747      -0.00032616      -0.00171886      -0.00011785
O        3.05089181      -2.10064413       0.10863028       0.00078106      -0.00182962       0.00027409
O        4.21444911      -0.29398007       0.25008333      -0.00120621      -0.00066680      -0.00026514
C        2.08204224       1.32338028      -0.17187090      -0.00038499      -0.00013335      -0.00102652
C        0.99424780       2.11305397      -0.37302185      -0.00049389       0.00009873       0.00052002
C       -0.28401091       1.49506233      -0.48719279      -0.00034057       0.00023026       0.00027018
O       -1.38662073       2.08860170      -0.24089597      -0.00035653       0.00129985      -0.00107555
H       -1.11842466      -0.34439660      -1.31004421       0.00068515      -0.00017508      -0.00081582
H       -3.91491126       0.58959601       0.58270515      -0.00000415      -0.00175393       0.00009935
H       -3.11378575       0.51963419      -1.01077884      -0.00059907      -0.00020557       0.00011040
H        0.76322134      -1.79926859      -0.52289307       0.00180301       0.00119768       0.00001063
H        3.05719499       1.75322451       0.00910859      -0.00108531       0.00069684      -0.00076542
H        1.05540375       3.19147990      -0.33616793       0.00093240       0.00021470       0.00181854
