15
Properties=species:S:1:pos:R:3:forces:R:3 charge=0 spin=1 energy=-32840.14769109154 pbc="F F F"
O       -4.24544248       0.19790004       0.30217153       0.00056683      -0.00104531       0.00015955
C       -3.14538276       0.19719706      -0.16928576       0.00006073      -0.00020723      -0.00011154
C       -1.91696958      -0.20510018       0.63803707       0.00008984      -0.00003307      -0.00013335
N       -0.70874588      -0.25056024      -0.14672123      -0.00006392       0.00012227       0.00105357
C       -0.07171641      -1.37665568      -0.44689302       0.00058349      -0.00050478       0.00065946
Cl       1.54334507       1.68477754      -0.45710809       0.00027495       0.00010915       0.00031431
C        1.16218008      -1.41581121      -1.05753809      -0.00070801      -0.00034904      -0.00032573
Cl       2.36962788      -0.27641782       0.97773133       0.00042980       0.00078154      -0.00078974
H       -2.95327557       0.49218538      -1.22012901       0.00173456       0.00029906      -0.00043724
H       -2.11400916      -1.17831316       1.09128708      -0.00007913       0.00016574      -0.00061218
H       -1.79843019       0.51338352       1.45342966      -0.00088812       0.00032307      -0.00032752
H       -0.15444386       0.61362509      -0.28764384       0.00000203      -0.00034632       0.00108379
H       -0.53313931      -2.29473427      -0.10192485      -0.00076263       0.00050059       0.00013475
H        1.63889696      -2.37536359      -1.18757089      -0.00076685      -0.00022122       0.00009211
H        1.58518520      -0.55182250      -1.54680189      -0.00047353       0.00040548      -0.00076019
