18
Properties=species:S:1:pos:R:3:forces:R:3 charge=0 spin=1 energy=-14790.703510156267 pbc="F F F"
C        3.11786731      -0.66138735      -0.74548268       0.00635722      -0.00686395       0.00110130
C        2.00070827      -0.68038566       0.28314414      -0.00018527       0.01018105      -0.00865493
N        0.95459710       0.30838555      -0.01331709       0.01061999       0.01707681      -0.04004556
C        1.15499793       1.58051460       0.32696286       0.00603272       0.01760571      -0.00227020
N        1.33280836       2.68015032       0.62791662      -0.00866514       0.01055590       0.01503195
C       -0.10655493      -0.01020631      -0.92596850       0.01234285       0.02268452      -0.01608037
N       -1.38176920      -0.31447911      -0.24040081       0.03640669      -0.01421664      -0.01111197
C       -2.65912315       0.15822902       0.02705615       0.10457242       0.03263192      -0.05323718
O       -3.25272567       1.10764148      -0.30874008      -0.00361204      -0.12025099       0.08812933
N       -1.70178001      -1.36718968       0.60262633      -0.07442842      -0.03849330       0.04423064
N       -1.18348543      -2.29611657       1.01303558      -0.12539769       0.01116900       0.03550509
H        3.58670163       0.32250728      -0.77991481       0.01068399      -0.00934636      -0.00025319
H        3.88002236      -1.39785532      -0.49124081       0.00067152      -0.00822788       0.00382730
H        2.74168844      -0.89683488      -1.74253396       0.00802135      -0.00539250      -0.00068277
H        2.38233190      -0.46511230       1.28069924      -0.00593646       0.01016859      -0.00687334
H        1.51458357      -1.65549307       0.33583288      -0.01413199       0.01737894      -0.00576203
H       -0.33519674       0.80979020      -1.60216219       0.01473675       0.02527164      -0.02413041
H        0.16515825      -0.89377820      -1.50131287       0.02191114       0.02806741      -0.01872356
