13
Properties=species:S:1:pos:R:3:forces:R:3 charge=0 spin=1 energy=-13085.894228677007 pbc="F F F"
O        2.27144143      -0.54180809       0.82006248       0.00041723       0.00003395       0.00079370
C        1.26481675      -0.05165615      -0.42686167      -0.00029981      -0.00202122       0.00111572
O        1.63757288       0.80300618      -1.11461886      -0.00152736       0.00014978      -0.00022225
C        0.20338497      -0.93068813      -0.03201645       0.00011628       0.00016253      -0.00072090
C       -1.20529587      -0.55276958      -0.14966480       0.00057376       0.00070667      -0.00086468
O       -2.09195198      -1.36184378      -0.31364581       0.00029290      -0.00066771       0.00058588
C       -1.58372762       0.91170116      -0.00120501      -0.00029289      -0.00025874      -0.00010883
F       -0.57344459       1.65341145       0.59246250       0.00116223       0.00004369       0.00017846
H        3.06163868      -1.04710473       0.57854741       0.00111816      -0.00053827       0.00024413
H        1.20201958      -1.02799840       1.03734100      -0.00002040       0.00072114      -0.00065347
H        0.40201394      -1.96276986      -0.31019650       0.00053235       0.00008684      -0.00010853
H       -1.78951877       1.33126458      -0.98803794      -0.00040219       0.00140999      -0.00086633
H       -2.47910941       0.97446535       0.61557365      -0.00167024       0.00017129       0.00062710
