31
Properties=species:S:1:pos:R:3:forces:R:3 charge=0 spin=1 energy=-19642.78915223455 pbc="F F F"
C       -4.37618232      -1.34574218      -0.56720650      -0.00072683      -0.00038317       0.00027770
C       -3.85289456      -0.11710401       0.15328252       0.00030736      -0.00033075      -0.00003653
N       -2.40866798      -0.01686493      -0.02703325       0.00048065      -0.00027145      -0.00042253
N       -1.89273404       1.14431421       0.59935489       0.00009585       0.00004352      -0.00035468
C       -0.54277779       0.97387767       1.00817914       0.00025303       0.00008640      -0.00035701
N        0.43245458       0.65491318      -0.08617560       0.00047958       0.00019992      -0.00061863
N        0.90726637       1.56939532      -0.84306042      -0.00032434      -0.00035828      -0.00034359
O        0.05519324       2.64309085      -0.86761062       0.00045951       0.00040431      -0.00030971
C        1.18865977      -0.56259942      -0.03460076      -0.00004015       0.00004462      -0.00018137
C        0.51190659      -1.76268227       0.13278654       0.00000079       0.00008504       0.00070186
C        1.23876429      -2.94092143       0.19626475      -0.00055487      -0.00098059      -0.00081432
C        2.62239127      -2.91670173       0.08892411      -0.00001562      -0.00004985       0.00015763
C        3.28310917      -1.70749424      -0.07211987       0.00044187       0.00003464       0.00077287
C        2.57100939      -0.51901550      -0.12800819       0.00051935       0.00077334      -0.00068288
O        2.04504603       2.79381287       0.23094298       0.00055841      -0.00006529       0.00048490
H       -5.45208590      -1.44334220      -0.42520494      -0.00090711      -0.00010064       0.00018842
H       -4.18884852      -1.28440455      -1.64174486       0.00017373       0.00022933       0.00108963
H       -3.89401482      -2.24770712      -0.18964885       0.00003121      -0.00036194       0.00014679
H       -4.37046396       0.78289914      -0.20641082      -0.00001805       0.00006419       0.00043604
H       -4.04036330      -0.18596967       1.22506910       0.00082153      -0.00095927      -0.00019570
H       -2.19002247      -0.00370608      -1.02105111       0.00065710       0.00092871      -0.00106075
H       -1.98387362       1.97306195       0.02218792      -0.00003889       0.00001969      -0.00084919
H       -0.17443976       1.88892736       1.46865265       0.00048377       0.00036856      -0.00004353
H       -0.47112465       0.14101937       1.70259369      -0.00064643       0.00054474       0.00062697
H       -0.56874664      -1.76089710       0.20199130       0.00022474      -0.00049894       0.00010252
H        0.71998750      -3.88202415       0.32277927      -0.00215027      -0.00022354       0.00016309
H        3.18556536      -3.83943734       0.13605816      -0.00004423       0.00017893      -0.00046622
H        4.36256857      -1.68467761      -0.14206601       0.00130957      -0.00040074       0.00005832
H        3.06740037       0.43571126      -0.21963984      -0.00071191       0.00110911       0.00074221
H        0.80064618       3.26411834      -0.48872832      -0.00000213      -0.00014722       0.00058148
H        2.87240166       2.93324001      -0.24304705      -0.00111694       0.00001674       0.00020630
