29
Properties=species:S:1:pos:R:3:forces:R:3 charge=0 spin=1 energy=-21295.29792242914 pbc="F F F"
C        3.06865111      -0.79868425       0.43977212       0.00016651      -0.00003905      -0.00002391
N        1.96449832      -0.01182759      -0.14478343      -0.00000219      -0.00014390      -0.00007573
C        2.34378648       1.32495604      -0.52468786       0.00007836       0.00017472       0.00008328
O        3.46472468       1.71863166      -0.43258548      -0.00018094       0.00021484      -0.00000902
C        0.63905147      -0.14265845       0.76581666      -0.00005202      -0.00006432       0.00033627
O        0.80591777      -0.55673093       1.87097463       0.00001853      -0.00000898      -0.00001392
C       -0.48065971       0.74578399       0.33292905      -0.00012226      -0.00005081       0.00014574
C       -1.22764982       1.32579353       1.35311719      -0.00005530       0.00039735      -0.00017039
C       -2.29230603       2.15968521       1.04823997       0.00027886       0.00012438      -0.00005029
C       -2.61532253       2.41695877      -0.27536138       0.00007474      -0.00004775      -0.00001753
C       -1.87662743       1.83430074      -1.29675938       0.00012045      -0.00038141       0.00020280
C       -0.81436552       0.99820797      -0.99619844      -0.00028585      -0.00030214      -0.00003463
O        0.42111066      -1.61159138      -0.59416086       0.00028164      -0.00006282      -0.00030842
C       -0.78258727      -2.19600977      -0.93742466       0.00066276       0.00048792       0.00024199
C       -1.15822577      -3.29831563       0.03430879       0.00027639      -0.00014677       0.00090382
O       -2.10166334      -4.02864763      -0.10521316      -0.00083354      -0.00022120       0.00003532
H        2.69178771      -1.79871832       0.62129269       0.00013174       0.00011826       0.00018787
H        3.38888183      -0.34285395       1.37177191      -0.00006373      -0.00001028      -0.00030925
H        3.89442572      -0.81182916      -0.26561367      -0.00020045       0.00003892       0.00018288
H        1.50615800       1.92640455      -0.89071478      -0.00015106       0.00006403      -0.00004314
H       -0.96485213       1.10800474       2.37923816       0.00012223       0.00011987      -0.00016583
H       -2.87005379       2.60694831       1.84599659      -0.00010612       0.00013285       0.00005789
H       -3.44682165       3.06659688      -0.51458828       0.00000960      -0.00010715       0.00040930
H       -2.13599582       2.02154025      -2.33035810       0.00019651      -0.00050653       0.00003551
H       -0.26959289       0.51527341      -1.79727691       0.00003017       0.00003790      -0.00008656
H        1.44340260      -0.64813012      -0.89431003       0.00016893      -0.00010446       0.00020461
H       -0.75661173      -2.63835443      -1.94245545       0.00023276      -0.00014519      -0.00117094
H       -1.62410601      -1.48076232      -0.94046547      -0.00063332       0.00089086      -0.00050398
H       -0.47829492      -3.37505212       0.90929959      -0.00016333      -0.00045909      -0.00004384
