31
Properties=species:S:1:pos:R:3:forces:R:3 charge=0 spin=1 energy=-21222.273229161685 pbc="F F F"
C       -3.88254685      -1.71358811      -0.86430489       0.00036123      -0.00034088       0.00054916
C       -2.98414541      -0.52172803      -1.17007653       0.00033470      -0.00079313       0.00015949
N       -2.77841099       0.41537155      -0.05352100      -0.00016050       0.00011901      -0.00037403
C       -2.13969256      -0.19206600       1.11262826       0.00024216       0.00068220      -0.00036464
C       -0.70552716      -0.68654944       0.91312241      -0.00012462       0.00076633       0.00026286
O       -0.35974290      -1.67665021       1.53382494      -0.00144581      -0.00037811       0.00054553
N        0.09060911       0.05943572       0.08814989       0.00061437      -0.00013420       0.00001055
N        0.02233452       2.22172634       0.46429202       0.00102819      -0.00128619      -0.00183719
O       -0.73196204       2.57811982       1.20123493      -0.00012239       0.00108281       0.00123674
C        1.46468222      -0.22736852      -0.06571232       0.00027970       0.00050608      -0.00030528
C        2.04916416       0.08927340      -1.29393672      -0.00042701       0.00085674      -0.00059633
C        3.40650974      -0.09774605      -1.50127523      -0.00019887      -0.00015692       0.00042865
C        4.20432776      -0.60228810      -0.48586402       0.00021679       0.00047200       0.00047964
C        3.62983512      -0.91329437       0.73936769       0.00056861      -0.00008665      -0.00009746
C        2.27447787      -0.72707063       0.95812604       0.00087309      -0.00069903      -0.00092666
O       -0.75240701       1.92289803      -1.23872538      -0.00038956      -0.00011124       0.00050345
H       -3.44418192      -2.36885767      -0.11175518       0.00057612      -0.00166102      -0.00065706
H       -4.85980516      -1.38208384      -0.50522110       0.00035986      -0.00040794       0.00019724
H       -4.04149285      -2.30662229      -1.76556125      -0.00225729       0.00067823       0.00010417
H       -1.99938960      -0.86655846      -1.49173900      -0.00032150      -0.00060086       0.00003467
H       -3.39842790       0.05445910      -2.00014004       0.00202663       0.00076876       0.00031994
H       -3.67849164       0.78208703       0.23415946      -0.00050961      -0.00000297      -0.00028509
H       -2.10483820       0.55908799       1.90935320      -0.00089287       0.00020377      -0.00029645
H       -2.68218760      -1.04929592       1.51834905       0.00052541       0.00068474      -0.00035999
H        1.42612902       0.48034040      -2.08902480      -0.00157469       0.00050039       0.00000541
H        3.83928713       0.14980717      -2.46218208       0.00019093      -0.00017531       0.00133937
H        5.26435299      -0.75097459      -0.64538439      -0.00016869      -0.00055250       0.00000893
H        4.24460262      -1.30754799       1.53886113       0.00045322      -0.00000335       0.00053700
H        1.83749941      -0.98332416       1.91079818       0.00041018      -0.00004576      -0.00117060
H       -0.39325832       0.89999018      -0.84375155       0.00022889       0.00016770       0.00040140
H       -1.69237354       1.78946764      -0.99584172      -0.00069635      -0.00005270       0.00014684
