24
Properties=species:S:1:pos:R:3:forces:R:3 charge=0 spin=1 energy=-24126.238009887682 pbc="F F F"
C        2.54353792      -1.20672896       1.69666118      -0.00130608      -0.00046137       0.00018084
N        2.70396093      -0.63702148       0.36517041       0.00010689      -0.00002508       0.00014523
C        3.88185433      -1.06720404      -0.38376422       0.00006412      -0.00087061       0.00017312
C        1.79938675       0.14131208      -0.17478237      -0.00001656       0.00036844       0.00011892
O        1.97361241       0.46573880      -1.42477256      -0.00022981      -0.00006752      -0.00068068
C        0.63752839       0.69917621       0.53696776      -0.00008473       0.00003273      -0.00046581
N       -0.91043634       2.17643012      -1.64965636       0.00082337       0.00024418       0.00181988
O       -1.32359808       2.79606338      -2.56020800      -0.00137681      -0.00029462      -0.00148224
C       -0.54705185      -0.11923666       0.28611751      -0.00060022       0.00016228      -0.00113973
O       -0.70010188      -0.96088870      -0.55505323       0.00041546       0.00018213       0.00180751
O       -3.60235369      -0.04734413       0.39743446       0.00033575       0.00042622      -0.00071859
N       -2.73403856      -0.58771060       0.99084263      -0.00051075      -0.00013753       0.00001892
O       -2.67944774      -1.65169228       1.51390150       0.00010258      -0.00041507       0.00027852
O       -1.55026975       0.22911527       1.18669564       0.00037890       0.00013149      -0.00065771
O        0.35503199       2.50890944      -1.28980471       0.00048293      -0.00046096       0.00011011
H        1.50818006      -1.13867699       2.01144478       0.00077909       0.00054070      -0.00037211
H        3.18223890      -0.68926773       2.41213711      -0.00017285      -0.00026461       0.00024916
H        2.82652915      -2.25706928       1.65773256       0.00074394      -0.00036259       0.00031278
H        4.08666081      -0.36800795      -1.18592091       0.00011206       0.00021489      -0.00038364
H        4.72822593      -1.10533184       0.30001556       0.00003588       0.00029003      -0.00025589
H        3.71315491      -2.05825586      -0.80593974      -0.00019592       0.00034931      -0.00019706
H        0.80120828       0.91555466       1.58736618      -0.00007154      -0.00021813       0.00034734
H        0.43063754       1.81181013      -0.27069963      -0.00000028       0.00027713       0.00015910
H        1.34384959       1.21372642      -1.64032554       0.00018437       0.00035846       0.00063224
