13
Properties=species:S:1:pos:R:3:forces:R:3 charge=0 spin=1 energy=-10384.420578507645 pbc="F F F"
O        2.25684656       1.14687291      -0.21145656      -0.00031197      -0.00001096       0.00001849
C        1.50201661      -0.35561821       0.17957851      -0.00009376       0.00004631       0.00006634
O        2.11246681      -1.31666208      -0.05634545       0.00015052      -0.00038795      -0.00011277
C        0.24256134       0.23863271       0.41615167      -0.00020616       0.00009361      -0.00006296
C       -1.00481431      -0.60022055       0.25041194       0.00017357       0.00010962       0.00003396
C       -2.11877790       0.22552990      -0.34573930       0.00027677       0.00013274      -0.00009705
O       -3.23054841       0.28628101       0.10143093      -0.00004146      -0.00006539      -0.00001167
H        2.76632058       1.54187281       0.50940369       0.00021928       0.00006812       0.00020683
H        1.05223108       1.26243178      -0.23277611      -0.00010543       0.00009696      -0.00029962
H        0.25496916       0.89809095       1.28159225       0.00005777       0.00007605       0.00020197
H       -0.80060457      -1.41258089      -0.45452277       0.00001045      -0.00016232      -0.00009196
H       -1.36359929      -1.04342702       1.18011408       0.00000386      -0.00000610       0.00013289
H       -1.83579767       0.79483667      -1.25511289      -0.00013354       0.00000920       0.00001555
