21
Properties=species:S:1:pos:R:3:forces:R:3 charge=0 spin=1 energy=-17541.160149851905 pbc="F F F"
C        1.19826948      -2.47122248       0.40118192      -0.00013909       0.00084423       0.00007557
C        1.33047676      -0.98379519       0.20976884       0.00032195       0.00048840      -0.00028861
C        2.57521573      -0.42606692      -0.08191322       0.00059337      -0.00025673      -0.00030357
C        2.72989033       0.93915230      -0.26319170       0.00014856       0.00011276      -0.00017851
C        1.64522084       1.79079194      -0.12302274       0.00009580      -0.00043756       0.00005006
C        0.40105803       1.23978822       0.16206518      -0.00000743      -0.00015092       0.00014160
C       -0.73180828       2.11035927       0.35782160       0.00062088      -0.00114045       0.00008200
N       -1.62851987       2.80327955       0.55135660       0.00023387       0.00064550       0.00149723
C        0.23170095      -0.13669815       0.32988969      -0.00000046       0.00024843      -0.00025779
N       -1.62413988      -0.88019406      -0.66637570       0.00098558       0.00069121      -0.00055198
O       -1.45292927      -2.01285980      -0.87990373       0.00112416      -0.00152379      -0.00056858
O       -2.08839422       0.05280563      -1.19096197      -0.00067542       0.00090916      -0.00057979
O       -2.06796926      -0.82633036       1.21222321      -0.00101876      -0.00067322       0.00044313
H        0.41220470      -2.71022314       1.11541506       0.00038378       0.00006953       0.00075153
H        0.94818097      -2.96405437      -0.54001774      -0.00107217       0.00041986       0.00064904
H        2.13644861      -2.89193647       0.76167468       0.00007930      -0.00036786      -0.00003055
H        3.43655946      -1.07798141      -0.17164087       0.00056152      -0.00045892       0.00033351
H        3.70200731       1.34406338      -0.51161499      -0.00021080       0.00059112      -0.00073857
H        1.75585556       2.86177142      -0.22532279      -0.00023265      -0.00006775      -0.00051736
H       -0.90280007      -0.48785692       1.00941386      -0.00065942      -0.00021604       0.00036406
H       -2.59898787      -0.03710245       1.40472481      -0.00113238       0.00027306      -0.00037253
