21
Properties=species:S:1:pos:R:3:forces:R:3 charge=0 spin=1 energy=-14030.728226990432 pbc="F F F"
C       -1.02061754       0.28160040       0.13323217       0.00034874      -0.00010128       0.00011233
C       -0.66592722       1.59400936       0.79877104       0.00074182       0.00043186       0.00030077
C        0.00241498      -0.23517163      -0.87629120       0.00007054      -0.00026439       0.00008052
N        1.21257469      -0.71283096      -0.23737795       0.00007882       0.00104694      -0.00000805
C        2.33314259       0.05368846      -0.12843701       0.00014212       0.00151955       0.00060994
C        3.47362262      -0.56883777       0.64486960       0.00123501       0.00075484      -0.00132863
O        2.41838107       1.16684950      -0.61145456       0.00070226      -0.00080161       0.00021058
C       -2.37743975       0.12525119      -0.20399478      -0.00026734      -0.00005476       0.00005944
O       -3.46354332       0.53181250      -0.22077421      -0.00011042      -0.00007387      -0.00032883
O       -2.24612198      -1.69883888      -0.11120045      -0.00014456      -0.00025831       0.00013895
H       -1.44455405      -1.02289310       0.56951357      -0.00002688      -0.00010305       0.00023384
H       -1.44509073       1.92026138       1.48692711       0.00145978       0.00001197      -0.00143421
H       -0.48722072       2.38435522       0.06644416      -0.00107694       0.00001356      -0.00002106
H        0.25725168       1.46884122       1.36411110      -0.00099099      -0.00027423       0.00050093
H        0.30800700       0.58039548      -1.53340039      -0.00003573       0.00041752       0.00041037
H       -0.42253962      -1.03127903      -1.48445820      -0.00008582       0.00027232      -0.00025266
H        1.18120315      -1.59626787       0.24079442      -0.00025406      -0.00179632       0.00048714
H        3.59218614      -0.02545843       1.58226224      -0.00056216      -0.00178156      -0.00089901
H        3.32195400      -1.62535080       0.86283870       0.00097618       0.00120125       0.00050159
H        4.38962596      -0.44317793       0.07170263      -0.00190404      -0.00022839       0.00062323
H       -3.01054897      -1.98809833       0.40247202      -0.00029641       0.00006783       0.00000286
