30
Properties=species:S:1:pos:R:3:forces:R:3 charge=0 spin=1 energy=-21888.85697972512 pbc="F F F"
O       -0.14926137      -0.32352845       2.02937123      -0.00103022      -0.00061619       0.00086207
C        0.48339922      -0.22159201       0.92876185       0.00031720       0.00020623      -0.00183848
C        1.54309030      -1.03507359       0.45371342       0.00025261      -0.00001056       0.00123046
C        2.46401517      -0.42596765      -0.35026729       0.00000324       0.00008531      -0.00164210
C        3.69980460      -1.16741643      -0.76573543      -0.00006023      -0.00008772      -0.00008546
C        4.96032755      -0.70059547      -0.06501815       0.00003144      -0.00027512       0.00054426
O        5.01256982       0.21077406       0.71072498      -0.00132766      -0.00020947       0.00141047
C        2.31397963       0.93778665      -0.77571814       0.00049338      -0.00043269       0.00044555
C        1.19838002       1.64896319      -0.48345443      -0.00043947      -0.00014660       0.00096465
C        0.15058043       1.03409587       0.28633947      -0.00017086      -0.00055202      -0.00033291
C       -1.25621744       1.36207663      -0.15744922      -0.00074669       0.00059432       0.00044539
O       -1.51770294       2.48917258      -0.50870345       0.00033589      -0.00066783      -0.00078506
C       -2.30787975       0.29571479      -0.15849289       0.00001252       0.00065387      -0.00026776
C       -3.61439079       0.67830492       0.12826740      -0.00024614       0.00045738       0.00227345
C       -4.63476083      -0.25683505       0.09573788       0.00003125      -0.00038965      -0.00061348
C       -4.35910004      -1.57234924      -0.25252830      -0.00060753      -0.00027735      -0.00074545
C       -3.06164984      -1.95165581      -0.56430203       0.00072490       0.00041264       0.00229524
C       -2.03576714      -1.02131916      -0.50905939       0.00094164       0.00051366      -0.00117962
H       -0.30959032       0.99108073       1.60772442      -0.00000451       0.00031147      -0.00111502
H        1.69244827      -2.02992042       0.85304684       0.00027490      -0.00034489       0.00034618
H        3.60258296      -2.24161266      -0.58719384       0.00071516      -0.00020317      -0.00057176
H        3.87990076      -1.05565055      -1.84086071      -0.00094901      -0.00004061      -0.00011113
H        5.86895023      -1.27667507      -0.33084537       0.00084965       0.00096027      -0.00084064
H        3.09444555       1.37614151      -1.38384369       0.00059826       0.00027886       0.00069564
H        1.02808544       2.63424847      -0.89633500       0.00106686      -0.00059182      -0.00107206
H       -3.81299382       1.71269361       0.37584553      -0.00125421       0.00069969       0.00037211
H       -5.64697566       0.04051266       0.33628390       0.00036006      -0.00033519      -0.00062127
H       -5.15778614      -2.30193939      -0.28654075      -0.00087753      -0.00084616       0.00135068
H       -2.84784471      -2.97360890      -0.84880862      -0.00109261       0.00083744      -0.00069963
H       -1.02617918      -1.32161584      -0.76204018       0.00179772       0.00001589      -0.00071457
