17
Properties=species:S:1:pos:R:3:forces:R:3 charge=0 spin=1 energy=-24426.533367750122 pbc="F F F"
C       -1.77586988      -0.83728824      -0.53649182       0.00031575      -0.00061573       0.00021079
C       -2.83980677      -1.85043335      -0.17407072       0.00060413      -0.00025454      -0.00044669
C       -1.32640679       0.06409937       0.41751291       0.00076485       0.00000380      -0.00027357
O        0.32102444      -0.97126318       0.62408273       0.00027013       0.00040775       0.00029016
C        1.66199862      -0.80970295       0.84267094      -0.00118172       0.00010475      -0.00046430
Cl       2.50049590       0.02441132      -0.53584916      -0.00051926      -0.00108894      -0.00181778
N       -0.70168022       1.34696673       0.02799532      -0.00015573      -0.00013624       0.00169223
O       -0.62426813       1.61179260      -1.14828801       0.00108113      -0.00075180      -0.00061876
O       -0.32659123       2.04330813       0.94941849      -0.00073571       0.00130355       0.00145024
H       -0.54737397      -1.34178800      -0.30800813       0.00185094       0.00030723       0.00044399
H       -1.72315823      -0.48654782      -1.56208110      -0.00144904      -0.00074507       0.00002557
H       -3.84192188      -1.44559548      -0.32065890       0.00033622       0.00137328       0.00086815
H       -2.74742721      -2.73766555      -0.79778486      -0.00072410      -0.00052991      -0.00229102
H       -2.74730469      -2.16470969       0.86563816      -0.00064904      -0.00161016       0.00087699
H       -1.57949554       0.06363893       1.46608020       0.00008752       0.00134259      -0.00127030
H        1.82889016      -0.18025777       1.71549351       0.00013514       0.00154822       0.00128523
H        2.16777540      -1.76717505       0.95662045      -0.00003105      -0.00065894       0.00003903
