21
Properties=species:S:1:pos:R:3:forces:R:3 charge=0 spin=1 energy=-36337.1023725352 pbc="F F F"
C        1.68213248       2.27590569      -0.78700067      -0.00025549       0.00080263       0.00207121
C        2.19183626       1.54661916       0.43706010       0.00223037       0.00040660      -0.00031186
N        1.08317220       0.75748708       1.04901055      -0.00131778      -0.00181963      -0.00000128
C        1.30375883      -0.46722096       1.34711799      -0.00071401       0.00186629      -0.00094890
O        1.82120939      -1.36110561       1.83909374       0.00178480      -0.00010209       0.00095475
S       -0.94215707      -1.60340551       0.69839575      -0.00076000      -0.00057431       0.00011597
C       -1.70520896      -0.66010232      -0.64993662       0.00046980       0.00002119      -0.00048171
C       -2.15366284       0.70311685      -0.22170974       0.00015450       0.00117755      -0.00011589
O       -1.49932475       1.48210749       0.44402530      -0.00146475      -0.00074493      -0.00056495
O       -3.36671245       1.01779585      -0.67192284       0.00175410      -0.00056348      -0.00046560
Cl       1.59961811      -1.23453681      -1.32500028      -0.00091493      -0.00041589       0.00013463
H        2.48165109       2.89321080      -1.19536855       0.00031431      -0.00000589       0.00005110
H        1.38376952       1.54867513      -1.54038096      -0.00002645      -0.00083473      -0.00075178
H        0.84259187       2.92683965      -0.53876614       0.00055251      -0.00083304       0.00003757
H        2.97246700       0.84263907       0.15564093      -0.00161120       0.00194120       0.00005628
H        2.56468090       2.22980809       1.20001387       0.00049035      -0.00056758      -0.00090057
H        0.10565718       1.03563150       0.84241726       0.00025069      -0.00034229       0.00040255
H       -2.53389055      -1.21178727      -1.08265375      -0.00014942       0.00008199       0.00032324
H       -0.91907173      -0.53403426      -1.40588030       0.00026347      -0.00028644       0.00020961
H       -3.55908409       1.92509520      -0.38777633      -0.00079457       0.00065370       0.00060891
H        0.15204761      -1.91891883      -0.12134932      -0.00025644       0.00013933      -0.00042349
