18
Properties=species:S:1:pos:R:3:forces:R:3 charge=0 spin=1 energy=-28290.653522926234 pbc="F F F"
N        4.62683829       0.49093397      -0.12676021      -0.00030587       0.00005315      -0.00033801
C        3.53094338       0.21380077      -0.31426443       0.00050794      -0.00051522       0.00084895
C        2.13397229      -0.12350078      -0.61873224       0.00016097      -0.00030099      -0.00046057
O        1.51440765       0.37725149      -1.50745476       0.00076178       0.00041946      -0.00140933
O        1.72005878      -1.11183587       0.18462769      -0.00009771       0.00005108      -0.00060208
C        0.33908283      -1.38667528       0.12231706       0.00018363      -0.00103104       0.00073099
S       -0.53438879      -0.01682194       1.07392262      -0.00019525       0.00047738       0.00058562
O        0.52517875       0.99910635       1.28598382      -0.00051860       0.00088553       0.00152337
C       -1.51127585       0.65620683      -0.28006958      -0.00029457      -0.00000906       0.00018826
N       -2.57150007      -0.06536543      -0.81021707      -0.00037458      -0.00026136       0.00027934
O       -2.74322361      -1.20425011      -0.12529217      -0.00064958       0.00040084       0.00032413
O       -3.75560310       1.11746295       0.13242224      -0.00027775      -0.00093692      -0.00171207
H       -0.02029637      -1.42914335      -0.90319758      -0.00092215       0.00092777       0.00063858
H        0.18185785      -2.32419677       0.64624557       0.00151062      -0.00144914       0.00012363
H       -0.91544529       1.16010018      -1.03647412      -0.00204634       0.00063597      -0.00118159
H       -3.53039642      -1.61392217      -0.51161287       0.00006382       0.00105563      -0.00060863
H       -2.45498086       1.42212500       0.19886517       0.00130355       0.00021542       0.00036786
H       -4.34606946       1.65478416      -0.41540914       0.00119029      -0.00061850       0.00070145
