22
Properties=species:S:1:pos:R:3:forces:R:3 charge=0 spin=1 energy=-39629.63034750053 pbc="F F F"
O       -4.00488236      -0.13398344      -0.94416339       0.00103469      -0.00003604       0.00022901
C       -2.95731556      -0.31530424      -0.43758498      -0.00064533       0.00003443      -0.00055453
F       -1.94247206      -0.90390142      -1.10194245      -0.00007436      -0.00053338       0.00014551
O       -2.65130550      -0.02731796       0.81292565      -0.00048788       0.00012670       0.00000758
C       -1.31679246      -0.02885401       1.35831073       0.00034177       0.00141411       0.00021643
C       -0.49550306      -1.30624023       1.26171529       0.00094565      -0.00080360      -0.00006037
C        0.82823854      -0.91542555       0.49798752      -0.00001118       0.00071867       0.00042457
C        1.04101075      -1.33270450      -0.86144711      -0.00088757      -0.00073566       0.00154254
C        2.29156670      -1.31039918      -1.41795608       0.00139832       0.00038365      -0.00186162
C        3.39191654      -0.92682533      -0.64681184      -0.00063127      -0.00059949       0.00221027
C        3.25478252      -0.63545837       0.70759239       0.00028635       0.00000645      -0.00098271
C        2.00795786      -0.66124929       1.27963168       0.00068774      -0.00023723       0.00023280
S        0.00752428       0.89047665       0.42033624      -0.00067164      -0.00009957      -0.00015432
Cl       1.38372077       2.45425488      -0.94554712      -0.00006662      -0.00005542       0.00005556
H       -1.47987296       0.31669239       2.37179451       0.00009195      -0.00023468      -0.00013458
H       -1.01124326      -2.09124876       0.71622496      -0.00070000      -0.00043967      -0.00003383
H       -0.23181046      -1.68998625       2.24526723       0.00018805       0.00019212      -0.00108907
H        0.17963274      -1.59552201      -1.45894030      -0.00145418       0.00011781      -0.00086902
H        2.42185471      -1.55997031      -2.46168674      -0.00061585       0.00027038       0.00115766
H        4.36834117      -0.86115316      -1.11004523       0.00023303       0.00055035       0.00011195
H        4.11852320      -0.36773417       1.29936187       0.00067418       0.00006878       0.00032490
H        1.87672787      -0.41149574       2.32593719       0.00036420      -0.00010869      -0.00091866
