21
Properties=species:S:1:pos:R:3:forces:R:3 charge=0 spin=1 energy=-88580.13255387043 pbc="F F F"
O       -2.30483039       1.44121892      -1.43684565       0.00006621       0.00102184      -0.00112149
C       -2.47545687       0.62142539      -0.60396359      -0.00035404      -0.00071109       0.00044631
Br      -4.15666700      -0.23197023      -0.28196987       0.00007081       0.00008147       0.00014506
O       -1.58338719       0.12360964       0.25907452       0.00039230      -0.00038033       0.00077446
C       -0.27734022       0.64034474       0.18515541      -0.00024081      -0.00021887      -0.00026909
C       -0.02247687       1.96351164       0.48990587       0.00035353      -0.00008008       0.00004914
C        1.29010038       2.41054131       0.47335750      -0.00015543      -0.00005412       0.00006323
C        2.33094148       1.54559377       0.16404718       0.00013170       0.00013701       0.00013484
C        2.02703682       0.23067259      -0.14414099      -0.00036000      -0.00013446       0.00005423
N        3.08261444      -0.67207785      -0.51100032      -0.00029563       0.00007577      -0.00108148
N        3.57812620      -1.34982049       0.44109816       0.00097864      -0.00024411       0.00147439
O        4.49119370      -2.18106954      -0.06359067      -0.00079675      -0.00003130      -0.00075482
C        0.72771537      -0.24642669      -0.13936063       0.00010821      -0.00007029      -0.00011899
O        4.98180819       0.33897773       0.26700204      -0.00102501       0.00008736      -0.00139452
H       -0.83763072       2.63020407       0.73501981       0.00003582       0.00019807       0.00002785
H        1.50494554       3.44104591       0.72111314      -0.00009682       0.00029014       0.00006224
H        3.37654267       1.82729471       0.18727319       0.00018016       0.00007106       0.00010536
H        4.97211279      -2.49262167       0.71626780       0.00055584      -0.00006001       0.00067741
H        0.50487987      -1.27636757      -0.37983926       0.00013910       0.00005910      -0.00005975
H        3.86745801      -0.27267177      -1.08297577       0.00032255       0.00022681      -0.00027208
H        5.86376380       0.63697539       0.51568215      -0.00001020      -0.00026409       0.00105779
