10
Properties=species:S:1:pos:R:3:forces:R:3 charge=0 spin=1 energy=-12262.88072985978 pbc="F F F"
O       -0.60566796       1.60946970       0.00021976       0.00044468      -0.00017179      -0.00000566
C       -0.12309369       0.44824740      -0.00007786      -0.00036418      -0.00023873       0.00001044
N        1.18496096       0.49127751      -0.00008046       0.00021151       0.00013260       0.00003680
C        2.06628384      -0.58794541      -0.00025100      -0.00019082       0.00034125      -0.00001309
O        3.25440739      -0.46046622       0.00003609      -0.00016687      -0.00041050      -0.00008408
O       -0.86361009      -0.68084442      -0.00033379      -0.00044165       0.00012744       0.00001848
C       -2.16769116      -0.52332567      -0.00005247      -0.00007359      -0.00015341      -0.00000757
N       -3.31343492      -0.47844852       0.00019077       0.00036790      -0.00002456      -0.00004143
H        0.68159390       1.76937927       0.00026218      -0.00004922      -0.00000097       0.00001918
H        1.56495173      -1.57144364      -0.00069324       0.00026236       0.00039860       0.00006695
