19
Properties=species:S:1:pos:R:3:forces:R:3 charge=0 spin=1 energy=-12421.580659912273 pbc="F F F"
N       -1.63511230      -1.43802316       0.06023657      -0.00078695       0.00077436      -0.00152467
C       -1.96129156      -0.18303324      -0.03113051       0.00057139      -0.00183406       0.00000740
O       -2.93368647      -0.09112493      -0.87111267       0.00152043      -0.00072157       0.00064209
C       -1.33945078       1.00166393       0.63514370      -0.00016064       0.00010524       0.00062193
C       -0.00097322       1.34865240      -0.01419066      -0.00000479       0.00040824       0.00093203
C        1.06229029       0.30115311       0.28108157      -0.00130374      -0.00051788       0.00044043
O        0.98418790      -0.44684436       1.24152282      -0.00222761       0.00004540      -0.00077784
N        2.10497272       0.28939162      -0.58197151      -0.00096393       0.00008496       0.00030949
C        3.23026398      -0.61215521      -0.43913694      -0.00018832       0.00079721      -0.00048659
H       -0.88303908      -1.77191453       0.64689046      -0.00000452       0.00066772       0.00002835
H       -2.63834966      -1.37046036      -0.80527533      -0.00125920      -0.00074308       0.00033364
H       -2.02702263       1.84025176       0.54917991      -0.00047486      -0.00034660      -0.00132112
H       -1.17415329       0.77604725       1.68776347       0.00060609       0.00066335       0.00076719
H       -0.11992247       1.47937544      -1.09211163       0.00093474       0.00150138       0.00149454
H        0.36126703       2.29905552       0.38656689       0.00129192       0.00070606      -0.00097077
H        2.08581190       0.92605282      -1.35879938       0.00000989      -0.00139559      -0.00019094
H        3.35681837      -1.21834546      -1.33614888       0.00005721      -0.00013818       0.00013691
H        4.15310919      -0.06421040      -0.24524411       0.00029582      -0.00023523       0.00031584
H        3.02530005      -1.26591219       0.40389623       0.00208705       0.00017817      -0.00075792
