12
Properties=species:S:1:pos:R:3:forces:R:3 charge=0 spin=1 energy=-78009.88057176482 pbc="F F F"
C        0.76614657       1.44583050      -1.03351398      -0.00191482       0.00079411      -0.00019315
C        0.83887442       1.21971435       0.34037264       0.00023737       0.00006938      -0.00001169
Br      -1.63827183      -0.16317776       0.21003003       0.00108848       0.00079812       0.00035844
C        1.69647711       0.19383469       0.98478955       0.00032473      -0.00050092       0.00071586
O        2.66365265      -0.38230644       0.14502595       0.00015945      -0.00109355       0.00097237
F        1.94832862      -1.29120660      -0.67429358      -0.00030271       0.00022925      -0.00111677
H       -0.22450598       0.72918204      -0.96980559       0.00061633       0.00038201      -0.00000437
H        0.35761264       2.39553213      -1.35649317      -0.00053632      -0.00019841      -0.00086881
H        1.49106449       0.96091927      -1.67306710       0.00086733      -0.00081844       0.00194118
H        0.25110490       1.82635034       1.01778793      -0.00042079      -0.00087800       0.00000425
H        2.29883220       0.69627838       1.75374100      -0.00041529       0.00061099      -0.00059682
H        1.08261419      -0.56436090       1.47200631       0.00029610       0.00060552      -0.00120053
