20
Properties=species:S:1:pos:R:3:forces:R:3 charge=0 spin=1 energy=-13454.902104089424 pbc="F F F"
O        0.61356453      -0.81560351      -1.20306446       0.00003493      -0.00010587      -0.00011960
C        1.32595943      -0.74254028      -0.02686092      -0.00019759       0.00001223      -0.00023750
C        2.74323631      -0.24970384      -0.29381830      -0.00052834      -0.00081451      -0.00145126
O        3.29634779       0.63005247       0.30933157       0.00104985       0.00065408       0.00084246
C        0.47465701       0.23338748       0.67593319       0.00002057       0.00019257       0.00002530
C        0.46651703       1.64370741       0.30355064       0.00011802       0.00108211       0.00024139
N       -1.66326445      -0.50760249      -0.10895118      -0.00000706       0.00005790       0.00010828
C       -2.20074010      -1.65059292       0.62131127       0.00013472      -0.00016210       0.00023223
C       -2.43277210       0.56372147      -0.29014594       0.00055031      -0.00081816       0.00001278
N       -3.04748670       1.53700003      -0.39156683      -0.00060982       0.00067968      -0.00005904
H       -0.89616337      -0.71117876      -0.81975080       0.00015662      -0.00003818      -0.00005480
H        1.40960832      -1.69584771       0.52722567       0.00001614      -0.00006462       0.00007303
H        3.21205905      -0.77727732      -1.14576573      -0.00033092       0.00027229       0.00082602
H       -0.04740454      -0.04759305       1.58222380      -0.00000756      -0.00000725       0.00011017
H       -0.49157478       2.12858147       0.48448617       0.00118467      -0.00038863      -0.00019076
H        0.80767769       1.79921903      -0.71596534      -0.00047145      -0.00006426       0.00102138
H        1.20999352       2.08977613       0.98319678      -0.00094701      -0.00068056      -0.00111911
H       -2.57864295      -1.33823183       1.59449547       0.00015915      -0.00012766      -0.00026508
H       -1.39104393      -2.36458637       0.76332325      -0.00035422       0.00031378      -0.00009700
H       -3.00464778      -2.14179742       0.07191169       0.00002893       0.00000689       0.00010098
