20
Properties=species:S:1:pos:R:3:forces:R:3 charge=0 spin=1 energy=-48812.187432488136 pbc="F F F"
C        3.24130646      -1.73396558       0.73602568      -0.00059525      -0.00000493       0.00122111
O        3.00182245      -0.34530605       0.64790273       0.00206086       0.00070014       0.00004409
C        2.67481272       0.05980433      -0.66245851       0.00024931       0.00005307       0.00013672
C        2.19344367       1.49362574      -0.56991563      -0.00021425       0.00012852       0.00015112
N        1.08327143       1.70443096       0.35137970      -0.00022938      -0.00001766       0.00017438
O       -0.14159895       1.46056367      -0.25437944      -0.00014914      -0.00053731       0.00020602
S       -0.85901027      -0.43031174      -0.30565712      -0.00010975       0.00014663       0.00070445
O       -0.57681858      -0.56593319      -1.69239426       0.00070077      -0.00020299       0.00026085
O       -0.04667431      -0.89810152       0.76446103      -0.00006117      -0.00038405       0.00030456
Cl      -2.62241618      -1.39317052      -0.08988253      -0.00127066       0.00143318      -0.00021325
Cl      -2.52228756       1.59779295       0.88827632       0.00026636      -0.00030156      -0.00026732
H        3.47394695      -1.95857000       1.77387570      -0.00044038       0.00036918       0.00217521
H        4.08709071      -2.02988056       0.10589336      -0.00028197      -0.00096473      -0.00122832
H        2.35573447      -2.30325075       0.43479096       0.00088001      -0.00044944      -0.00168139
H        1.90942374      -0.59618217      -1.08978799       0.00011001      -0.00005467       0.00074530
H        3.55364278       0.01291912      -1.31878250      -0.00030990       0.00029826      -0.00092567
H        1.89257479       1.87949051      -1.54264389      -0.00027696       0.00117332       0.00021689
H        3.00617036       2.11705832      -0.19421021      -0.00054269       0.00044487      -0.00065171
H        1.15433390       1.10598774       1.17514630       0.00024207      -0.00139564      -0.00064040
H       -0.93953858       1.88710874       0.28572030      -0.00002799      -0.00043394      -0.00073260
