41
Properties=species:S:1:pos:R:3:forces:R:3 charge=0 spin=1 energy=-23547.83940625172 pbc="F F F"
C       -2.74631689      -0.89922364       1.71776155       0.00014440      -0.00043439      -0.00050168
O       -2.44741514      -1.31083098       0.39247298       0.00011331       0.00031889      -0.00019170
C       -1.66755116      -0.59318137      -0.64749524      -0.00011908       0.00007061      -0.00005164
C       -3.20288447      -1.15594668      -0.93006724       0.00044703       0.00022718       0.00002572
C        0.70290496      -1.77418762       1.01781808       0.00016036       0.00058484       0.00030116
O        0.51481864      -1.00369379       1.93508290       0.00030943      -0.00140900      -0.00119185
C       -4.17908277      -0.10433632      -0.80988015       0.00011814       0.00030855       0.00016237
C       -3.90924450       1.11454625      -0.28615288       0.00009331      -0.00024155      -0.00011353
C       -2.56899266       1.59726739      -0.07977919      -0.00025145       0.00014240      -0.00006055
C       -2.39581955       3.04262784       0.30947926       0.00058099      -0.00010350      -0.00054708
C       -1.50285100       0.82305866      -0.43706654       0.00031994      -0.00004858       0.00004783
C       -0.16438020       1.42417279      -0.75407782       0.00009086      -0.00008615       0.00041959
N        1.68499385      -1.69122303       0.07625138      -0.00020152       0.00027263       0.00010772
C        1.57465149      -2.57485522      -1.07663475       0.00000723       0.00028134       0.00031184
C        2.59798890      -0.60856910       0.02066012      -0.00002616      -0.00008144      -0.00000997
C        3.06286986       0.00541612       1.18432301       0.00012155       0.00005425      -0.00030130
C        3.96142588       1.05594265       1.09867378      -0.00018976      -0.00025429      -0.00031620
C        4.41961017       1.50668726      -0.13114486      -0.00018092      -0.00018684      -0.00003496
C        3.96836830       0.88861666      -1.28492646      -0.00025253      -0.00023400       0.00037679
C        3.06500047      -0.16176339      -1.21418873       0.00028461       0.00029820       0.00029018
H       -3.52683326      -0.14326557       1.75765676      -0.00065042       0.00043583      -0.00010492
H       -1.82188968      -0.53913599       2.16125935       0.00052345       0.00053122       0.00019775
H       -3.06105752      -1.81539016       2.21074346      -0.00006443      -0.00057190       0.00026933
H        0.06674956      -2.65705088       0.86164934       0.00027179       0.00049543       0.00011030
H       -5.14471599      -0.28615222      -1.26565644       0.00047843       0.00016570       0.00017014
H       -4.71027096       1.84004086      -0.15475244      -0.00007624       0.00009591       0.00002296
H       -2.17376616       3.66231401      -0.56431071      -0.00021122      -0.00031630       0.00025268
H       -3.30256879       3.43486178       0.76960669      -0.00059764       0.00035785       0.00041692
H       -1.57190437       3.16916542       1.01238960      -0.00026140      -0.00034974      -0.00029795
H       -0.23725595       2.41593646      -1.20443084      -0.00006930       0.00005389      -0.00008921
H        0.36261521       0.76058427      -1.44269306       0.00009320      -0.00006908       0.00008742
H        0.46362438       1.50220370       0.13926631      -0.00030095      -0.00015104      -0.00043977
H       -1.96173263      -1.32704746      -1.51826791      -0.00041812      -0.00005776       0.00027291
H        1.03749744      -3.47194136      -0.78092527       0.00007904       0.00018577       0.00003739
H        2.56779372      -2.85613535      -1.42590899      -0.00013524       0.00014648       0.00017993
H        1.01591926      -2.10683558      -1.88749107      -0.00003820      -0.00017580       0.00017567
H        2.71393046      -0.33312555       2.14610360       0.00001549       0.00000676      -0.00007635
H        4.30972173       1.52356903       2.01080654      -0.00001731      -0.00001097      -0.00000740
H        5.12290054       2.32691813      -0.18741064      -0.00018629      -0.00018128       0.00003570
H        4.31403457       1.22424340      -2.25418273      -0.00002427      -0.00004763       0.00004941
H        2.71648424      -0.61807142      -2.12919076       0.00001986      -0.00002291       0.00001408
