17
Properties=species:S:1:pos:R:3:forces:R:3 charge=0 spin=1 energy=-12826.483439556072 pbc="F F F"
C       -1.82708685       1.51468352      -0.31818610      -0.00027583       0.00095810       0.00124827
N       -2.01206090       0.07484367      -0.48338510      -0.00047050       0.00093331      -0.00103912
O       -1.48949657      -0.55126770       0.69559056       0.00064387       0.00092160      -0.00127415
C       -0.55725633      -1.51259056       0.30049719      -0.00021235      -0.00024027       0.00035719
N        0.56642206      -0.94962310      -0.41626599      -0.00084681       0.00070538       0.00009984
N        1.57224351      -0.51313400       0.24028517      -0.00093362      -0.00019152      -0.00026971
O        2.50368293      -0.06558408      -0.63571459      -0.00086928      -0.00061288      -0.00007097
O        1.38351000       1.41429447       0.63867367       0.00059171       0.00131904       0.00142053
H       -2.29548826       1.89508236       0.59387463       0.00051412       0.00123935       0.00156573
H       -2.27663674       1.99992457      -1.18547519       0.00148770      -0.00070097      -0.00052660
H       -0.76204211       1.73516232      -0.27829771      -0.00001052       0.00066095       0.00017993
H       -3.00411612      -0.13877028      -0.43956608       0.00020237      -0.00186942      -0.00038560
H       -0.18035169      -1.97056816       1.21113616      -0.00052213      -0.00133605      -0.00037854
H       -1.01347911      -2.25463018      -0.35664660       0.00098340      -0.00208668       0.00076361
H        0.45534129      -0.62503908      -1.37419013      -0.00007182      -0.00090645      -0.00042794
H        2.45563908       0.89785456      -0.18210594       0.00044793       0.00068619      -0.00054174
H        1.56324581       1.56658165       1.57299602      -0.00065803       0.00052046      -0.00072085
