22
Properties=species:S:1:pos:R:3:forces:R:3 charge=0 spin=1 energy=-94321.5089957086 pbc="F F F"
C       -3.34024726      -0.90781882      -1.25357078      -0.00078048       0.00032052       0.00007583
N       -2.95793519       0.19394035      -0.54459373      -0.00037216      -0.00019014       0.00006531
C       -2.36015064      -0.06518233       0.74256874       0.00021226       0.00019351       0.00030686
S       -0.57796159      -0.28748871       0.53694688       0.00027491       0.00001310       0.00044215
O       -0.37065190      -1.40452435      -0.33894119      -0.00078563       0.00040534      -0.00006832
O       -0.02939263      -0.27046601       1.86904015       0.00091806      -0.00085133      -0.00016189
C       -0.07233244       1.28187389      -0.24955518       0.00056500      -0.00012667      -0.00032107
N        1.17817123       1.77436742       0.24163495       0.00011403       0.00041962       0.00036778
C        2.35434710       1.51027783      -0.48609776      -0.00003874      -0.00040982       0.00069577
Br       2.98065301      -0.38743515      -0.49080678       0.00000386      -0.00009472       0.00026900
O       -4.72852021       0.40331168       0.13102893       0.00042668      -0.00204740       0.00001365
H       -3.32938903      -0.77523465      -2.33025765      -0.00037163      -0.00096932       0.00022498
H       -3.06059600      -1.88596337      -0.86803634      -0.00087683       0.00064720      -0.00060039
H       -2.69497427      -0.98920012       1.22431539      -0.00033557       0.00014955      -0.00061841
H       -2.49724657       0.77973954       1.41111712       0.00152090       0.00014794       0.00069916
H       -0.03829548       1.11040840      -1.32455536      -0.00054519       0.00073485       0.00030746
H       -0.88585875       1.97607708      -0.02529738       0.00076090       0.00044643      -0.00103651
H        1.27799054       1.64423869       1.24031520      -0.00071686       0.00071089       0.00002567
H        2.22354583       1.74764136      -1.53665404       0.00100281      -0.00021058       0.00074919
H        3.18914350       2.06004953      -0.06808265      -0.00019623       0.00042574      -0.00078183
H       -4.51834521      -0.58357440      -0.78764831      -0.00114726      -0.00020477      -0.00006639
H       -5.17202402       1.21557215      -0.15592020       0.00036725       0.00049013      -0.00058819
