18
Properties=species:S:1:pos:R:3:forces:R:3 charge=0 spin=1 energy=-13072.01192039997 pbc="F F F"
O       -1.04092316      -1.56466330      -0.03379067       0.00075329       0.00123155      -0.00114953
C       -1.66804046      -0.41367661      -0.44463333      -0.00024403       0.00070699       0.00038844
C       -3.16867610      -0.38399396      -0.20271947      -0.00025524      -0.00022081       0.00017189
C       -0.87744380       0.39801451       0.49776284       0.00082378       0.00019818       0.00019236
C       -0.25506795       1.63782643       0.13589823       0.00092695       0.00007268       0.00115736
N        0.18072721       2.65460157      -0.18001102       0.00161772       0.00016564      -0.00006111
N        1.15692899      -0.45070075       0.65655907      -0.00025187      -0.00079875      -0.00027976
C        2.11796173      -0.08214026      -0.33184795       0.00015603      -0.00027804       0.00023672
F        3.23655079      -0.90406192      -0.26959728       0.00112948       0.00026251       0.00026248
H        0.62070477      -1.30094867       0.44304558      -0.00057022      -0.00046973       0.00004715
H       -1.45101905      -0.12323599      -1.48555653      -0.00131601       0.00028530       0.00028353
H       -3.37621867      -0.61479150       0.84227872      -0.00059736      -0.00074353      -0.00010723
H       -3.62467688      -1.15878766      -0.81969669       0.00066824      -0.00146537       0.00050844
H       -3.60885755       0.58121675      -0.46165449       0.00020922       0.00068630      -0.00034060
H       -1.10664214       0.26012460       1.54459144      -0.00147425      -0.00048261      -0.00015051
H        1.52272935      -0.41455731       1.60092618      -0.00085637       0.00114134      -0.00073644
H        2.45726900       0.94229273      -0.17970461      -0.00037407       0.00090175      -0.00123555
H        1.67430394      -0.20036867      -1.32018002      -0.00034530      -0.00119339       0.00081239
