29
Properties=species:S:1:pos:R:3:forces:R:3 charge=0 spin=1 energy=-19715.50533377551 pbc="F F F"
C       -4.09960324      -0.53222912      -0.06840891      -0.00015135       0.00007309       0.00054648
C       -3.08949702      -1.14004648       0.89745871      -0.00024515       0.00030244       0.00049600
C       -1.73034975      -0.46043237       0.79769472      -0.00054421      -0.00044419      -0.00052737
C       -1.02423440      -0.77893046      -0.48334783       0.00003960      -0.00035395      -0.00027168
O       -1.15591088      -1.72999041      -1.18182995      -0.00001544      -0.00026358       0.00015196
N        0.08285051       0.18787447      -0.79496573       0.00003384       0.00040699       0.00006886
N       -0.19946325       1.37408391      -1.16165061       0.00016682      -0.00066779       0.00004657
O       -1.48999720       1.38097383      -1.59809739       0.00019803       0.00000047       0.00036991
C        1.40668559      -0.08720220      -0.32612829      -0.00122726      -0.00080544       0.00008981
C        1.95135062      -1.34445441      -0.54041192      -0.00099020      -0.00118772      -0.00080510
C        3.22527442      -1.60856242      -0.06264252      -0.00031287      -0.00194891       0.00081707
C        3.93840978      -0.62634951       0.61043626       0.00149907       0.00091299       0.00006866
C        3.37313547       0.62376811       0.81972825       0.00034648       0.00045472       0.00021362
C        2.09546046       0.90143027       0.35965961       0.00054188      -0.00000113       0.00044874
O       -0.95181461       2.50842741       0.33250418       0.00061813       0.00074469       0.00021354
H       -3.76492034      -0.63189833      -1.10167328       0.00002126      -0.00050928      -0.00052414
H       -5.06913291      -1.02267786       0.01906448      -0.00089366       0.00022342      -0.00034762
H       -4.23835007       0.53083392       0.13632768       0.00007531       0.00109493      -0.00007584
H       -2.97691399      -2.20819225       0.70326492      -0.00041228       0.00013812      -0.00061317
H       -3.44583286      -1.03664925       1.92394490       0.00060188      -0.00052414       0.00050815
H       -1.04397605      -0.81569145       1.57761025      -0.00022270      -0.00050325       0.00020430
H       -1.78382267       0.62288743       0.92336387       0.00027062       0.00049937      -0.00001545
H        1.38732710      -2.09396869      -1.07874305       0.00077015       0.00063215      -0.00018730
H        3.66396492      -2.58383844      -0.22582243      -0.00019575       0.00097729      -0.00060892
H        4.93433162      -0.83723818       0.97674079       0.00014364       0.00021306       0.00005199
H        3.92344952       1.38515512       1.35605378       0.00036975       0.00083818       0.00015992
H        1.61699123       1.85436992       0.53509135       0.00000212       0.00102053      -0.00033640
H       -1.73992556       2.16737783      -0.98288654       0.00014388      -0.00011188      -0.00009678
H       -0.47418644       3.34371961       0.37277467      -0.00063152      -0.00121130      -0.00004594
