14
Properties=species:S:1:pos:R:3:forces:R:3 charge=0 spin=1 energy=-79517.89810690141 pbc="F F F"
O        2.38734644       0.78705745      -0.75594496       0.00033783      -0.00067647       0.00037534
C        1.78139177      -0.27464342       0.84266331       0.00070990      -0.00028118      -0.00015866
C        1.15170802       0.25694044      -0.35911307      -0.00031337      -0.00048581       0.00016228
F        3.66957198      -0.92025458       0.06143264      -0.00026761      -0.00038114       0.00030437
C        0.12895728       1.34914048      -0.11972575      -0.00019460      -0.00044790       0.00095222
N       -0.95182649       0.86652215       0.74392617      -0.00084432       0.00009405       0.00096898
Br      -2.08026539      -0.33669540      -0.18008026      -0.00035819       0.00045034      -0.00086507
H        3.22798633      -0.08391968      -0.52279756       0.00015990       0.00004411       0.00040566
H        1.87268012      -1.32289067       1.07397113       0.00105929      -0.00025729       0.00028187
H        2.08751832       0.44187069       1.59193244       0.00042771       0.00125549      -0.00128746
H        0.76894867      -0.51787948      -1.02977422       0.00036692       0.00027427      -0.00138853
H        0.62448132       2.15491850       0.42814403       0.00075825      -0.00006682      -0.00091414
H       -0.20825541       1.74512833      -1.08273486      -0.00062826      -0.00003354       0.00183790
H       -1.56929298       1.64114519       0.96202098      -0.00121350       0.00051191      -0.00067467
