27
Properties=species:S:1:pos:R:3:forces:R:3 charge=0 spin=1 energy=-14589.484764736157 pbc="F F F"
O        1.35500341      -0.35691222       1.25962045      -0.00016078      -0.00047234      -0.00156329
C        1.91495044      -0.73022212       0.03931808       0.00022968      -0.00036401       0.00130178
C        2.07056516      -2.22523773      -0.15417223      -0.00175073      -0.00019348       0.00004258
C        0.73399590      -0.12852026      -0.57780429       0.00120450       0.00138692       0.00092190
C        0.61578716       1.36017774      -0.61802881      -0.00004917       0.00034452      -0.00003366
C        1.80772889       2.20034510      -0.25393692      -0.00071277       0.00023507       0.00076140
O       -0.43135901       1.85473011      -0.98114544      -0.00043924       0.00078215      -0.00102616
N       -1.07328538      -0.62796073       0.58542993       0.00005888      -0.00031245      -0.00016063
N       -1.42215365       0.39715943       1.50724473      -0.00076042      -0.00071115       0.00041948
C       -2.23828870      -1.26073390      -0.02525909      -0.00039150      -0.00022101       0.00047019
C       -3.05944794      -0.28195023      -0.84807627      -0.00020750       0.00068845       0.00020661
H       -0.50704326      -1.28908367       1.10678956       0.00023170      -0.00046210      -0.00046305
H        2.86554273      -0.22440345      -0.19383698       0.00043943      -0.00114505      -0.00026808
H        1.11619271      -2.73246216       0.00584342      -0.00012341      -0.00062052      -0.00026291
H        2.78290740      -2.61112715       0.57466765       0.00152332       0.00093213       0.00017749
H        2.43170051      -2.46286077      -1.15739989      -0.00021450       0.00015082       0.00006115
H        0.12136965      -0.64153942      -1.31080904       0.00057312      -0.00036597       0.00007777
H        1.50834332       3.24457979      -0.22719816       0.00045965       0.00083197       0.00075235
H        2.58506074       2.06965851      -1.01135171      -0.00061693      -0.00075930       0.00018064
H        2.21427692       1.88090168       0.70368792       0.00024662       0.00061136      -0.00039718
H       -0.54040007       0.61081845       1.97141243       0.00070882       0.00013580      -0.00006210
H       -1.64077240       1.21609914       0.94316836       0.00009535       0.00014781      -0.00080108
H       -1.85013506      -2.05977373      -0.66325560      -0.00034178      -0.00041455       0.00033600
H       -2.85958015      -1.72132917       0.75018257       0.00036901       0.00020532       0.00021685
H       -3.54802679       0.45266445      -0.20760142       0.00044999       0.00031945       0.00018561
H       -2.43325063       0.25269418      -1.56206643      -0.00000552      -0.00070068      -0.00111930
H       -3.83832190      -0.81750184      -1.39053281      -0.00081602      -0.00002916       0.00004580
