22
Properties=species:S:1:pos:R:3:forces:R:3 charge=0 spin=1 energy=-13591.696101977333 pbc="F F F"
C        0.20503341      -0.90556844       0.45211013      -0.00074064      -0.00127726       0.00015234
C       -0.48166218       0.05785260       1.22449964      -0.00009251       0.00074160      -0.00050821
C       -1.22147827       0.14477145      -0.36022551      -0.00140267       0.00109355      -0.00148466
O       -1.16479482       1.26700175      -0.89001042       0.00018573      -0.00063172       0.00056386
O       -2.37401898      -0.64629710      -0.23528689      -0.00002130       0.00130825       0.00050288
C       -3.47365328       0.12272080       0.24277088      -0.00062956       0.00049403       0.00089499
C        1.59159166      -0.69529370      -0.12100808      -0.00029969       0.00000353      -0.00021942
O        2.31242368      -1.66136171      -0.15596574      -0.00150918       0.00083075       0.00178085
C        2.01673729       0.68370753      -0.54208941       0.00152647       0.00000106      -0.00058766
C        2.89392232       1.31096203       0.54784440       0.00028070       0.00135462       0.00029747
H       -0.53816743      -0.68591910      -0.93698445       0.00072440      -0.00104870      -0.00061297
H       -0.09843513      -1.94524536       0.49909846      -0.00143084      -0.00082390       0.00081783
H       -0.01324426       1.01417238       1.40625847       0.00126089      -0.00106362       0.00117341
H       -1.18431490      -0.29584757       1.96454865      -0.00024180       0.00030850      -0.00196183
H       -3.70094331       0.93477392      -0.44600537      -0.00011228       0.00020376       0.00110894
H       -3.26052964       0.54151354       1.23131999       0.00043894      -0.00123223       0.00104068
H       -4.31386955      -0.56341869       0.31054403       0.00047674      -0.00109719      -0.00153629
H        1.14318082       1.30210583      -0.75563241       0.00117110      -0.00112701       0.00112351
H        2.59935724       0.56858177      -1.45684699       0.00060262       0.00027347      -0.00172064
H        2.34865570       1.43578331       1.48446288      -0.00157451       0.00092926       0.00006350
H        3.76539723       0.68684195       0.74251165      -0.00057719      -0.00035171      -0.00093141
H        3.23519240       2.29449281       0.22958610       0.00196466       0.00111104       0.00004286
