28
Properties=species:S:1:pos:R:3:forces:R:3 charge=0 spin=1 energy=-41550.95730400471 pbc="F F F"
N       -3.44692638      -1.55244061       1.04008559      -0.00074943       0.00055834      -0.00019419
C       -3.58315550      -1.20866422      -0.36851341       0.00030097       0.00002789      -0.00030294
C       -2.78660027       0.01316276      -0.79621049      -0.00021485       0.00089985       0.00072973
O       -2.67205414       0.26575077      -1.98096068       0.00102000       0.00105663      -0.00042671
C       -2.18344149       0.87268039       0.23402530      -0.00024950       0.00040131       0.00015826
C       -1.81098730       2.15844053      -0.16560626      -0.00010129       0.00082576      -0.00037578
Cl       0.29999831       1.92735105      -0.77208893      -0.00028998       0.00081407       0.00137530
S        0.00538986      -0.17322301       0.59602360      -0.00059732       0.00114590      -0.00023014
O       -0.03984141       0.26753790       1.95740415       0.00055158       0.00070752      -0.00056220
O       -0.59353432      -1.37358669       0.07728630       0.00058658      -0.00002423      -0.00014780
C        1.73040581      -0.36819294       0.18734580      -0.00048587      -0.00065741      -0.00050566
C        2.67032009       0.28425461       0.96721874      -0.00091043      -0.00058291       0.00012078
C        4.00956850       0.12539375       0.64944543      -0.00112406      -0.00049184       0.00029703
C        4.38100942      -0.65993820      -0.43382867       0.00032980      -0.00070551       0.00103709
C        3.41890052      -1.29811138      -1.20380643       0.00114927      -0.00054619       0.00012867
C        2.07422589      -1.15768427      -0.89604032       0.00113537      -0.00039147      -0.00075508
H       -4.20001736      -2.16100626       1.32940329       0.00070384      -0.00113714       0.00140482
H       -2.57677633      -2.04431612       1.19772874      -0.00096801      -0.00067287       0.00076242
H       -4.62692206      -0.95014140      -0.56565657       0.00016330      -0.00093933      -0.00137694
H       -3.32073216      -2.00725673      -1.07073265       0.00126045      -0.00070189       0.00032565
H       -2.40002415       0.66963615       1.27149959      -0.00093259      -0.00167287      -0.00017137
H       -1.62833492       2.92210396       0.57676563      -0.00050532       0.00044520       0.00071775
H       -2.09830746       2.49432622      -1.15293270      -0.00091150       0.00091720      -0.00053523
H        2.35505550       0.89687590       1.79918000       0.00107422       0.00123359      -0.00015415
H        4.76335606       0.61840473       1.24844173       0.00005544      -0.00010850      -0.00173763
H        5.42854740      -0.77382050      -0.68012731       0.00002744      -0.00104242      -0.00022691
H        3.71296419      -1.90775526      -2.04746585       0.00081325      -0.00050022      -0.00027806
H        1.30883370      -1.64533114      -1.48192365      -0.00113127       0.00114147       0.00092313
