22
Properties=species:S:1:pos:R:3:forces:R:3 charge=0 spin=1 energy=-13591.903421422681 pbc="F F F"
C        0.00508602      -1.36658389      -0.98874887      -0.00099175       0.00052536      -0.00000234
C       -0.05460814       0.04871458      -0.87187341       0.00152816       0.00031146       0.00124075
C       -1.07968839       0.78131657      -0.11011168      -0.00076524      -0.00110339      -0.00063064
O       -1.14433733       1.98949202      -0.21587461      -0.00110834      -0.00116477       0.00001399
C       -2.04821523       0.02347619       0.76975225      -0.00034865      -0.00044389       0.00015151
C       -3.25359040      -0.44992807      -0.04735492       0.00076663       0.00039644      -0.00033257
C        1.23569907      -0.68140946       0.31687631       0.00077612      -0.00058600      -0.00057619
O        0.96762251      -0.58363141       1.49975103      -0.00009981      -0.00016958       0.00071179
O        2.39813052      -0.37059897      -0.33214672      -0.00024227       0.00116125      -0.00085674
C        2.85356142       0.94273007       0.02412674      -0.00015172       0.00092920       0.00006039
H        0.46090748      -1.80834822      -1.86811098       0.00000268       0.00101278       0.00067491
H        1.06807432      -1.83674706      -0.14537667       0.00018493      -0.00089510      -0.00085996
H       -0.73293109      -1.97540984      -0.47768159      -0.00038507      -0.00009582       0.00050891
H        0.46394169       0.63620768      -1.61645812      -0.00094575      -0.00036123      -0.00140083
H       -2.37288036       0.71614564       1.54448461      -0.00057293      -0.00023743      -0.00013899
H       -1.54808624      -0.81081736       1.26287054      -0.00072933       0.00034520       0.00200494
H       -2.96394517      -1.12638757      -0.85472446       0.00213108       0.00061175       0.00030052
H       -3.96593372      -0.97656460       0.58736884       0.00078668       0.00062929      -0.00069825
H       -3.76444776       0.40109213      -0.49756904       0.00093399       0.00057647      -0.00028099
H        2.09155464       1.68291060      -0.22967846      -0.00058088       0.00042064       0.00008977
H        3.06964269       0.98951894       1.08962242       0.00000086      -0.00036882       0.00016452
H        3.75524349       1.11156203      -0.55647322      -0.00018956      -0.00149405      -0.00014459
