15
Properties=species:S:1:pos:R:3:masses:R:1:forces:R:3 charge=0 spin=1 energy=-11344.906669932425 pbc="F F F"
O       -3.50011611       0.06610045       0.00022904      15.99491462      -0.00121293      -0.00447206       0.00002417
N       -2.19584852       0.44401625       0.00032756      14.00307400      -0.00168643       0.00237873      -0.00000176
N       -1.44286096      -0.52094396       0.00009197      14.00307400       0.00131405      -0.00259460       0.00006028
C       -0.04987297      -0.19722429       0.00008548      12.00000000      -0.00012820      -0.00135739      -0.00033532
C        0.45127502       1.10191195       0.00006592      12.00000000       0.00035834      -0.00006376      -0.00028193
C        1.82111810       1.29658646      -0.00009924      12.00000000      -0.00094761       0.00049049       0.00000630
C        2.68986606       0.21060831      -0.00027513      12.00000000       0.00055009      -0.00080653       0.00027564
C        2.18331453      -1.07943217      -0.00030514      12.00000000       0.00143374      -0.00032927       0.00017764
C        0.81152504      -1.28386693      -0.00009892      12.00000000       0.00003769       0.00243101      -0.00022509
H       -3.49101972      -0.91113885      -0.00005273       1.00782503       0.00085320       0.00466062       0.00005428
H       -0.22871252       1.94153479       0.00006489       1.00782503       0.00042862       0.00022464       0.00024419
H        2.21640788       2.30389689      -0.00013326       1.00782503       0.00017961       0.00073463       0.00005416
H        3.75966446       0.37380047      -0.00034304       1.00782503      -0.00072665      -0.00063362      -0.00022229
H        2.85417123      -1.92835836      -0.00049759       1.00782503      -0.00004807       0.00022690       0.00008677
H        0.39068937      -2.28052270      -0.00016096       1.00782503      -0.00040553      -0.00088979       0.00008295
