22
#Cluster:5
C          -1.47342582      2.80845849      0.16314435
O          -1.89570434      1.46220797      0.12531142
C          -1.42710000      0.72050000     -0.97560000
C          -0.29580000     -0.23320000     -0.60280000
N          -0.21560000     -1.29800000     -1.48480000
O           1.01503232     -1.82238566     -1.64240624
C           1.00610000      0.46390000     -0.25660000
O           1.33594552      1.51537404     -0.74222604
O           1.72079969     -0.23408193      0.61402621
C           3.00948299      0.25410673      0.96572555
O          -0.99670000     -2.35040000      0.09050000
H          -1.88949921      3.37220748     -0.68007153
H          -1.85840657      3.21927374      1.09430066
H          -0.38465052      2.89919227      0.14446610
H          -2.25870118      0.11404865     -1.34846760
H          -1.07977238      1.38686169     -1.77376663
H           0.90104296     -2.60232289     -2.21094212
H           3.76439872     -0.36613445      0.48079676
H           3.11889534      1.29089679      0.64253063
H           3.10390603      0.17759102      2.04757730
H          -0.67270000     -0.97180000      0.29670000
H          -1.36170816     -3.17549859      0.43545968