22
#Cluster:4
C          -2.75147452      2.43284998     -0.08291170
O          -1.86448432      1.37775988      0.18977474
C          -1.42710000      0.72050000     -0.97560000
C          -0.29580000     -0.23320000     -0.60280000
N          -0.21560000     -1.29800000     -1.48480000
O           1.02131749     -1.81248096     -1.62950838
C           1.00610000      0.46390000     -0.25660000
O           1.45007169      1.39285980     -0.87409598
O           1.57207755     -0.10357730      0.80066372
C           2.81200253      0.42039829      1.25676571
O          -0.99670000     -2.35040000      0.09050000
H          -3.64511599      2.07677447     -0.60931032
H          -3.03884918      2.85279803      0.87838351
H          -2.26849684      3.20743236     -0.69161129
H          -2.24058090      0.14953256     -1.44284863
H          -1.03886487      1.45386217     -1.70029457
H           0.92314284     -2.58977596     -2.20457941
H           3.30119874     -0.38079663      1.80610604
H           3.42357643      0.74188107      0.41253558
H           2.62986444      1.27106331      1.91649960
H          -0.67270000     -0.97180000      0.29670000
H          -1.36223613     -3.17779447      0.42988849