22
Properties=species:S:1:pos:R:3:forces:R:3 #Cluster:2=T energy=-13592.016600363086 pbc="F F F"
C        0.01569987      -1.34899462      -0.98928228      -0.00056365       0.00821857       0.00454453
C       -0.06208616       0.07331309      -0.96033343       0.01678666      -0.01458660      -0.00259670
C       -1.19758431       0.66648913      -0.25278143      -0.01780281       0.00861281       0.00823597
O       -1.99466590      -0.01983338       0.36017834       0.00334690       0.00129951      -0.00235597
C       -1.29129540       2.17540121      -0.22634313       0.00643264      -0.00313924      -0.00743863
C       -0.73239362       2.70096850       1.09881316       0.00381612      -0.00264920       0.00838417
C        1.19674852      -0.61132334       0.34111532      -0.01230342       0.00177609      -0.01770111
O        0.92269357      -0.37731597       1.49579585       0.00417474       0.00293162       0.01310895
O        2.38080000      -0.42928556      -0.32027469       0.00202390      -0.00148761      -0.00178651
C        2.97023702       0.83477855      -0.00287999      -0.00244134      -0.01078060      -0.00087046
H        0.55190954      -1.84867085      -1.78651427       0.00017305      -0.00611724       0.00107090
H        0.94158895      -1.78410506      -0.01549351       0.00742363       0.00368679       0.00177331
H       -0.80904230      -1.87045557      -0.51150629      -0.00052988      -0.00622937      -0.00431361
H        0.49659607       0.64577380      -1.68517787      -0.00740853       0.00937622       0.00328093
H       -2.34372539       2.44552056      -0.31937753      -0.00181872      -0.00002447      -0.00192367
H       -0.74887053       2.60593526      -1.07098219      -0.00087461       0.00300144       0.00224507
H        0.31203578       2.41428940       1.22880377      -0.00288905       0.00080896      -0.00310548
H       -0.80393795       3.78772641       1.14383487       0.00056931      -0.00071237      -0.00023365
H       -1.29183921       2.27847230       1.93234649      -0.00068264       0.00055997      -0.00268005
H        2.31160337       1.64545266      -0.32601813      -0.00016352       0.00085006      -0.00044399
H        3.14738337       0.91346790       1.06806747       0.00112348       0.00251507       0.00143389
H        3.90721114       0.87431115      -0.55018442       0.00160747       0.00208949       0.00137233
