27
####
 C                  3.88917400    1.41310900    0.10769600
 C                  3.68431200    0.14496200    0.55228400
 C                  4.77400800   -0.87771500    0.50812200
 C                  2.43114300   -0.20288300    1.08927300
 O                  0.86832200   -0.09138200   -0.57818900
 C                 -0.41598100   -0.29270700   -0.29114300
 C                 -0.91525100   -1.58914600   -0.09139000
 C                 -2.24832900   -1.82588700    0.14914200
 C                 -3.14216600   -0.75874000    0.18100400
 Cl                -4.81560200   -1.04344500    0.46860500
 C                 -2.68908000    0.52935800   -0.02253500
 C                 -1.33107300    0.78286300   -0.23165200
 C                 -0.99338200    2.19228400   -0.43266400
 O                 -1.67016900    3.02978200   -0.93439700
 Cl                 0.56214400    2.66918600    0.25052000
 Cl                 2.24980700   -2.53975700   -0.75126500
 H                  4.83966100    1.72133600   -0.29459600
 H                  3.09769500    2.14205000    0.11862100
 H                  4.43576100   -1.74060800   -0.05889200
 H                  5.00826900   -1.21645000    1.51528700
 H                  5.67283300   -0.47866300    0.04912600
 H                  1.75295700    0.58064300    1.38008300
 H                  2.25662900   -1.20223000    1.44768700
 H                 -0.21710200   -2.41107400   -0.14109100
 H                 -2.60480200   -2.83191400    0.30394800
 H                 -3.37532000    1.36206500   -0.01137000
 H                  1.35000800   -0.98705700   -0.77057000

