30
-766.452189 Hartree
 C                 -2.63461000    2.32321800   -0.64704500
 C                 -1.51956300    1.72984600    0.00541600
 C                 -0.15823600    2.19661200   -0.45180500
 O                  0.91783600    1.55067200    0.18457200
 C                  1.73571700    0.76151300   -0.63098600
 C                  2.58519500    1.59256900   -1.56873100
 O                  2.48048700    2.77376500   -1.75155900
 O                  3.48418300    0.82054500   -2.20859600
 C                 -1.70702000    1.25385100    1.43099500
 O                 -0.99637000    0.07554400    1.75078700
 C                 -0.92085500   -0.76151300    0.67053400
 C                 -0.35711500   -2.02222500    0.81410700
 C                 -0.23115100   -2.81120200   -0.32009600
 C                 -0.65355100   -2.35374300   -1.56561300
 C                 -1.20527700   -1.08212300   -1.67716000
 C                 -1.35432400   -0.28622900   -0.54938800
 H                 -2.25428200    0.95164000   -0.83586200
 H                 -2.46807500    2.93772700   -1.51896000
 H                 -3.59378700    2.34608100   -0.15268100
 H                 -0.11908200    3.25797400   -0.18411900
 H                 -0.09975100    2.13951600   -1.54009500
 H                  2.39514000    0.19107600    0.02293100
 H                  1.16801900    0.03871000   -1.22816300
 H                  3.97934400    1.40093700   -2.80533400
 H                 -2.77725400    1.09673400    1.59505200
 H                 -1.35483500    2.04208200    2.09835400
 H                 -0.01844000   -2.36307500    1.78413500
 H                  0.20709900   -3.79736600   -0.23232000
 H                 -0.54904200   -2.98524300   -2.43864600
 H                 -1.52618400   -0.72025700   -2.65097800
