30
-766.452178 Hartree
 C                 -2.62274200    2.32215100   -0.66540000
 C                 -1.51717500    1.73531800    0.00859400
 C                 -0.15019100    2.21367600   -0.41849300
 O                  0.91658700    1.57257200    0.23812000
 C                  1.75979200    0.79655500   -0.56402400
 C                  2.62589300    1.64240300   -1.47290500
 O                  2.51427700    2.82376200   -1.65029000
 O                  3.54913900    0.88373500   -2.09399100
 C                 -1.73081300    1.25283100    1.42825500
 O                 -1.01814800    0.07885700    1.75918400
 C                 -0.91297900   -0.75389100    0.67804400
 C                 -0.34267800   -2.01071300    0.82947300
 C                 -0.18663400   -2.79486900   -0.30434400
 C                 -0.58604800   -2.33645700   -1.55705200
 C                 -1.14511100   -1.06867700   -1.67614000
 C                 -1.32431000   -0.27780000   -0.54924600
 H                 -2.22788000    0.95430600   -0.85066800
 H                 -2.44267700    2.94108000   -1.53146000
 H                 -3.59240200    2.33552100   -0.19160200
 H                 -0.12414900    3.27440200   -0.14674200
 H                 -0.06865300    2.16042100   -1.50551200
 H                  2.40661600    0.22401300    0.10053600
 H                  1.21168600    0.07600000   -1.18195500
 H                  4.05402300    1.47313400   -2.67352600
 H                 -2.80304400    1.08721300    1.56946900
 H                 -1.39878000    2.04142600    2.10548300
 H                 -0.02201600   -2.35219300    1.80538000
 H                  0.25727700   -3.77791900   -0.21041300
 H                 -0.45814200   -2.96412400   -2.42972400
 H                 -1.44821000   -0.70597200   -2.65536500

