23
Properties=species:S:1:pos:R:3:forces:R:3 /mnt/e/work/rmlp/database/CAMD/log/success_log/ts_10_1_NO2-A-5-d_opt.log=T energy=-16545.337998304567 pbc="F F F"
C        1.55690916      -1.62055774       0.53219516      -0.00179807       0.00052190      -0.03667158
N        1.75054471      -0.25771419       0.05178632       0.00746059       0.00878713       0.02629989
C        3.04427161       0.00873280      -0.55500746       0.00308347       0.00083023       0.00024617
C        0.86367201       0.75310005       0.09744750      -0.00613642      -0.01723742      -0.01187283
O        1.15444328       1.91339420      -0.15428050      -0.00376597       0.00341535      -0.00470012
C       -0.65303680       0.48533375       0.42098195      -0.00320086      -0.01047959       0.00375473
C       -0.93129980      -0.19487437       1.75102918      -0.00657269       0.03373724      -0.00536156
O       -1.28603807       1.72412765       0.38558332      -0.00198597       0.00362778      -0.00218642
N       -1.08670353      -0.27994438      -0.81119985      -0.00240862       0.00216061      -0.00713638
O       -2.75340539      -0.28597129      -0.66683301      -0.01542139       0.01542056       0.02799517
O       -1.06253601      -1.61230980      -0.67856795       0.00811625      -0.00713199      -0.00109953
H        2.21034738      -1.80297684       1.38642236      -0.00446779       0.00117271       0.00566816
H        0.52700714      -1.80709349       0.79714097       0.00742736       0.00038147       0.01510476
H        1.80992375      -2.30842475      -0.27176726      -0.00676949      -0.00006276       0.00077938
H        3.04839314       1.02707462      -0.92906522       0.00036243       0.00016284       0.00256718
H        3.84113612      -0.11516717       0.17904712      -0.00342874      -0.00421099       0.00077440
H        3.21390720      -0.68685957      -1.37692114      -0.00010983       0.00168204      -0.00305372
H       -1.54420361      -1.08206415       1.61423423       0.01168895      -0.00484967      -0.00398954
H       -1.47812961       0.49890191       2.38753939       0.00297265      -0.00410691       0.00367621
H       -0.00383632      -0.47950460       2.24594140      -0.00249270      -0.00933673       0.00840649
H       -0.61784958       2.34617986       0.03707679       0.00163673      -0.00579041       0.00258804
H       -2.33795373      -1.37762075      -0.70617865       0.00271988       0.00199535      -0.01370883
H       -3.04301305       0.00242824      -1.54737466       0.01309058      -0.01068977      -0.00808012
