14
Properties=species:S:1:pos:R:3:forces:R:3 /mnt/e/work/rmlp/database/CAMD/log/success_log/ts_195_2_S-B-5-a_opt.log=T energy=-15133.597450368414 pbc="F F F"
O       -1.17387425       1.55205289       0.86238704       0.00310177      -0.00092947      -0.00051796
C       -0.70881559       0.82129907       0.06810487      -0.01103830       0.00511944      -0.00102496
O       -1.56993962      -0.05919376      -0.78438906       0.01293504      -0.02141523      -0.02132270
C       -2.44217306      -1.01770695      -0.15110665      -0.00442219       0.00536263       0.00513852
C        0.61344974       0.50502809      -0.49473289       0.01216769       0.00432229       0.00562742
F        1.38049801       1.64256481      -0.37699597       0.00305177       0.00533265       0.00311220
C        1.34937006      -0.61278558       0.13899877      -0.00872421      -0.00783199      -0.00619709
O        2.50128782      -0.61117512       0.46902796      -0.00248313       0.00076166      -0.00144839
O        0.55120725      -1.69622032       0.29265459       0.01082325       0.00082719       0.00874674
H       -0.58068088      -0.34668050      -1.21229515      -0.01049054       0.00557106       0.00665975
H       -1.86379556      -1.89084824       0.12111103      -0.00090894       0.00005567      -0.00558590
H       -3.18331181      -1.27193326      -0.90209486      -0.00578622       0.00555672       0.00182304
H       -2.90219586      -0.54881826       0.71448147       0.00434777      -0.00496765       0.00598717
H        1.08213375      -2.38047288       0.72607883      -0.00257367       0.00223568      -0.00099742
