23
Properties=species:S:1:pos:R:3:forces:R:3 /mnt/e/work/rmlp/database/CAMD/log/success_log/ts_143_2_A-E-9_opt.log=T energy=-82634.942576272180 pbc="F F F"
C       -2.05927861       0.38612675       0.59538279       0.00134045      -0.00716978      -0.01690561
C       -3.21577080       1.34448214       0.66596676      -0.01701868       0.01826763       0.00527543
C       -1.54964388      -0.12757648      -0.61710290      -0.00497684      -0.02159488      -0.01453054
Br      -0.64554234      -1.80228372      -0.61490198       0.00417434       0.00964564       0.00261694
C       -0.60898289       1.40788586      -0.17098572       0.01035571       0.01286602      -0.01098713
O       -0.94993430       2.35785943      -0.88206420      -0.00257784      -0.00260031       0.00015819
C        0.80392755       0.90493766       0.03977574      -0.00143579      -0.00340715       0.00350857
C        1.27043124       0.49921796       1.28454837       0.00167301       0.00203075      -0.01108773
C        2.58246965       0.07358862       1.43161534      -0.01087862       0.00301756       0.01212548
C        3.44018865       0.07924005       0.33854272       0.00175792      -0.00055251      -0.01331402
C        2.98433288       0.51745841      -0.89685803      -0.00040825      -0.00495503       0.00390212
C        1.67356673       0.93848671      -1.04777614       0.00542009       0.00447895       0.00331092
H       -1.01183948       1.42015430       0.97273927       0.01089004      -0.01079769       0.01715338
H       -1.84757330      -0.18489509       1.49589130       0.01225033       0.01168048       0.01154542
H       -2.92042760       2.28842709       0.20676147       0.00425276      -0.00221333       0.01203461
H       -4.08962284       0.95611889       0.14035572       0.00715554       0.00467463      -0.01456984
H       -3.49464962       1.54149849       1.70086612      -0.01076990      -0.01314397       0.00063613
H       -1.99461757       0.12080090      -1.56925234      -0.00784671       0.00227520       0.00685450
H        0.60049812       0.51449428       2.13414406      -0.00504336       0.00062764       0.00797141
H        2.93355223      -0.27304671       2.39429379       0.00117736       0.00341687       0.00008234
H        4.46257977      -0.26045266       0.44847033       0.00417238      -0.00127172      -0.00106928
H        3.65522001       0.52411936      -1.74633999      -0.00037131      -0.00234026      -0.00101280
H        1.30531637       1.29477778      -2.00102247      -0.00329280      -0.00293402      -0.00369802
