21
Properties=species:S:1:pos:R:3:forces:R:3 /mnt/e/work/rmlp/database/CAMD/log/success_log/ts_17_1_NO2-A-11-e_opt.log=T energy=-17192.524716541640 pbc="F F F"
O        3.26276117      -1.15525859      -0.76733918      -0.00814831       0.01179327       0.01487207
N        2.09768370      -0.90390691      -0.17601859      -0.00305322      -0.00734347      -0.01808715
N        1.73381549       0.25709899      -0.52746830      -0.01216853      -0.01585424       0.01151013
C        0.37044559       0.61185646      -0.34215501      -0.00014316      -0.01015222       0.00315467
C        0.03496817       1.94672959      -0.51109249      -0.01124396       0.01487443      -0.00273160
C       -1.28664612       2.33548331      -0.35965409       0.00231684       0.01263237       0.00140983
C       -2.25376568       1.39365722      -0.05586320       0.00395339      -0.02961516      -0.00715722
C       -1.90573784       0.06062570       0.11011402      -0.01459585       0.01322401      -0.00029942
C       -2.96099178      -0.95767864       0.45325683      -0.00513178       0.01160204       0.00332004
F       -2.52121053      -2.22630242       0.09486175      -0.00260419      -0.00237721      -0.00519848
C       -0.59122823      -0.34363005      -0.04308232       0.02524230      -0.00385977       0.00505315
O        3.00567744       0.30538827       1.35039931      -0.00529802       0.00088981       0.00595140
H        3.61177560      -1.91149194      -0.27708511      -0.00094795      -0.00112247      -0.00540233
H        0.80418698       2.66512540      -0.76288814      -0.00070789       0.00027815      -0.00183801
H       -1.56101770       3.37528584      -0.47822703       0.00055027      -0.00149089       0.00000127
H       -3.28918308       1.68861765       0.04861544       0.00033474       0.00495751      -0.00189919
H       -3.18104201      -0.97494610       1.52636943       0.00734195      -0.00878045       0.00110310
H       -3.89059145      -0.76051689      -0.08681564       0.00399256       0.00289875       0.00404814
H       -0.32201737      -1.38382636       0.08068245      -0.01090425      -0.00480753      -0.00344761
H        2.46804861       0.89169492      -0.05441463       0.03016186       0.00541243      -0.00007385
H        3.47457903       0.08597453       2.15752451       0.00105411       0.00684109      -0.00428903
