16
Properties=species:S:1:pos:R:3:forces:R:3 /mnt/e/work/rmlp/database/CAMD/log/success_log/ts_196_1_R-B-3_opt.log=T energy=-14618.686218195731 pbc="F F F"
O       -1.58057481      -0.06839600      -1.43806228       0.00475162      -0.00365910       0.00326300
C       -1.88044770       0.08651325      -0.27879808      -0.02315086      -0.00137281      -0.00158596
O       -2.78609796      -0.71810179       0.33134952       0.01152241       0.00088364       0.01173794
C       -1.39382776       1.08479204       0.66242660       0.01198581      -0.00120395      -0.00059821
C       -0.22198599       1.78234590       0.57123497      -0.02824152      -0.00328544       0.00996891
C        0.96061633       1.56051538      -0.16714450       0.02895086      -0.01726651      -0.00154582
C        1.39314814       0.40995196      -0.81022688       0.01089108       0.01570165      -0.00448269
C        1.88470963      -1.11225277       0.29994813      -0.01992583      -0.01577556       0.00086635
F        3.17694622      -0.91464508       0.50908550       0.02274281       0.01720725       0.01261556
N        1.02606977      -1.88318156       0.50038260      -0.01394576       0.00438237      -0.01661149
H       -3.06899876      -1.36182818      -0.33566824       0.00617129      -0.00151625      -0.00625461
H       -2.06411976       1.28084954       1.49116865       0.00224441       0.00236577      -0.00784892
H       -0.17629808       2.65925769       1.20803710      -0.00226854       0.00686133       0.00056520
H        1.67100888       2.38190953      -0.14164868       0.00404370       0.00093019       0.00055719
H        0.68139025      -0.22447860      -1.31654964      -0.01045446       0.00340949       0.00987355
H        2.37874163       0.47143870      -1.25612477      -0.00531775      -0.00766289      -0.01051969
