28
Properties=species:S:1:pos:R:3:forces:R:3 /mnt/e/work/rmlp/database/CAMD/log/success_log/ts_172_1_RR-A-3-a_opt.log=T energy=-31312.169237201768 pbc="F F F"
C        0.36022272       0.05172124      -0.68526787      -0.00907373      -0.00198951      -0.02253497
C       -1.04226916       0.16953430       0.98245559      -0.01665981      -0.02572924       0.00936693
O       -0.41971047       0.39545035       1.92741052       0.00443077       0.00755323       0.00084431
C       -2.31014812      -0.16122906       0.36675210       0.01563352       0.02059904      -0.00473028
C       -2.75751661      -1.48332091       0.35911238       0.00309239      -0.00124986       0.00450432
C       -4.04595414      -1.77060996      -0.06142703      -0.00126245      -0.00779894       0.00133054
C       -4.87937199      -0.75542882      -0.50714552      -0.00261697       0.00044158       0.00146807
C       -4.41239344       0.54906301      -0.55980617       0.00250341       0.00011992       0.00120253
C       -3.12724825       0.84895368      -0.14138550       0.00372390       0.00645581      -0.00145219
C        1.20524280      -1.03695008      -0.42034667       0.00598031       0.00125819       0.00908932
C        2.46875943      -0.81625384       0.07174757      -0.01222020       0.00010204      -0.00181410
Cl       3.47512849      -2.15358958       0.50042842       0.00633544       0.00059325       0.00113823
C        2.97326363       0.49252435       0.24168496       0.01374298      -0.00602725      -0.00599127
C        2.25843257       1.58697806      -0.15443107      -0.02403525       0.00338428      -0.00279947
C        2.82609923       2.97450244      -0.16561778       0.00027364      -0.00329375       0.00045797
C        0.88275362       1.41721954      -0.58940316       0.01853228       0.01538467       0.02137470
O        0.15950014       2.39332482      -0.82303133      -0.00232732      -0.00290895      -0.01321578
H       -0.51081855      -0.07265342      -1.31675288       0.00064871      -0.00755100       0.00631312
H       -2.09400760      -2.28003561       0.66736821      -0.00115091      -0.00200254      -0.00030334
H       -4.40665935      -2.79065214      -0.04182354      -0.00339849       0.00217927      -0.00184260
H       -5.89131650      -0.98133178      -0.81634657       0.00174344       0.00052060      -0.00118719
H       -5.05626428       1.33518344      -0.93042887       0.00013253      -0.00118423       0.00117715
H       -2.74996787       1.85959647      -0.22462159      -0.00307292      -0.00447816       0.00124296
H        0.84972636      -2.05106691      -0.56809890      -0.00324224       0.00331619      -0.00781342
H        3.95417340       0.62704472       0.68951626      -0.00325280       0.00046270       0.00175461
H        2.01671689       3.69666403      -0.21530022       0.00221306       0.00068697      -0.00343846
H        3.47240406       3.13352842      -1.03461490       0.00766100      -0.00465342       0.00577077
H        3.42206301       3.16196325       0.73027358      -0.00433402       0.00580899       0.00008750
