24
Properties=species:S:1:pos:R:3:forces:R:3 /mnt/e/work/rmlp/database/CAMD/log/success_log/ts_122_1_S-A-11_opt.log=T energy=-18696.913042163804 pbc="F F F"
C        1.30484887       2.10081161       0.62337805       0.00168116      -0.00904729      -0.00071797
O        1.60309255       1.48998511      -0.62900924      -0.00293615       0.00374998       0.00294214
C        2.47139313       0.39981557      -0.45598897      -0.00401753      -0.00285876       0.00434214
C        1.70553489      -0.85512277      -0.04440041       0.01681155       0.00685072      -0.00584316
O        2.08914890      -1.53607739       0.87380339      -0.00738841      -0.00144625       0.00045824
O        0.62518479      -1.06843676      -0.76969749      -0.00546956      -0.01137796       0.01103473
C       -1.02663759      -1.22499030       0.23245272      -0.00096691       0.01897651      -0.00432265
C       -1.64031258      -2.29290348      -0.57392706       0.00094548      -0.00434417       0.00598502
O       -0.95120286      -0.93924255       1.35303786       0.00505427      -0.01308602       0.00418508
O       -1.31389363       0.18667386      -0.86358323       0.00097096      -0.00372070      -0.01865679
O       -1.34974932       1.40346038      -0.12287733       0.00498080      -0.01144947       0.00955504
C       -2.71183769       1.59412391       0.20814802      -0.01622087       0.00829855      -0.00263253
H        0.41411926       2.70260005       0.47199644       0.00541826       0.00431763      -0.00127923
H        1.10744616       1.34557522       1.38744739       0.00264648       0.00240394      -0.00216842
H        2.14344697       2.72395982       0.93799691      -0.00296935       0.00107241      -0.00068523
H        2.97886954       0.21898172      -1.40583800      -0.00077355       0.00142819      -0.00042219
H        3.21833805       0.57894850       0.31885744       0.00124499       0.00124434      -0.00057624
H       -1.50794431      -2.12788330      -1.63491540      -0.00004829      -0.00106682      -0.00122991
H       -2.70290823      -2.31842477      -0.33008096      -0.00081017       0.00138237      -0.00247085
H       -1.17816207      -3.23642262      -0.28988962      -0.00211899      -0.00082416       0.00026622
H       -0.31886484       0.03407652      -1.09427738      -0.00361168       0.01156081      -0.00044285
H       -2.77668030       2.61904014       0.56901192      -0.00042692      -0.00153127       0.00050232
H       -3.01874480       0.91330369       1.00368708       0.00410861       0.00264257       0.00035641
H       -3.34606491       1.46669785      -0.67278211       0.00389522      -0.00317452       0.00182122
