19
Properties=species:S:1:pos:R:3:forces:R:3 /mnt/e/work/rmlp/database/CAMD/log/success_log/ts_149_2_A-E-10_opt.log=T energy=-12522.154613951203 pbc="F F F"
C       -1.17891525       0.46386032      -0.28174766      -0.00272799       0.00521016       0.00644323
C       -2.11127117      -0.62557072       0.16991563       0.01732898       0.00602043       0.00430799
O       -3.03745214      -1.02706937      -0.48260201      -0.00934398      -0.00123590      -0.00531995
C       -0.33253584       1.16481795       0.60544302      -0.00607967       0.01734746       0.00134748
C        0.44793371       2.35431443       0.13814470      -0.01083738      -0.01046765       0.00925684
C        0.49732439      -0.34720428       0.14882327      -0.00234616       0.00296152      -0.00458393
O        0.37761004      -1.27611769       0.95746179       0.00416707       0.00505114      -0.00464118
O        1.71746899       0.17184849      -0.34121521       0.01059210      -0.01619053       0.01024169
C        2.85497159      -0.70801673      -0.20088663      -0.01682353       0.02488327      -0.01112178
H       -1.37203581       0.85718446      -1.27826979      -0.00405763       0.00047314      -0.00350451
H       -0.08394647      -0.50315627      -0.92784961       0.00151309      -0.00766051      -0.00292754
H       -1.82533565      -1.04736416       1.14844828      -0.00706810      -0.00117448       0.00055265
H       -0.48595983       1.04815865       1.67015293       0.00425509      -0.00439076       0.00178051
H       -0.11488373       3.28902678       0.21973163      -0.00161049      -0.00085798      -0.00483657
H        1.35614250       2.45121602       0.73247548       0.00229930       0.00168019      -0.00105232
H        0.75777113       2.18653241      -0.89046831       0.00079877       0.00098493      -0.00228634
H        3.10998827      -0.85701154       0.85043600       0.00485826      -0.00826854       0.00909120
H        2.67655984      -1.68822929      -0.65525280       0.01048078      -0.01106369      -0.00013903
H        3.68236542      -0.21889948      -0.70888069       0.00460197      -0.00330198      -0.00260855
