19
Properties=species:S:1:pos:R:3:forces:R:3 /mnt/e/work/rmlp/database/CAMD/log/success_log/ts_141_2_A-E-8_opt.log=T energy=-82549.689526421469 pbc="F F F"
C        0.87987619       1.74085013       0.24975055      -0.01766500       0.00334024      -0.00187817
C        1.45385721       2.15277134      -1.06294037       0.00564396      -0.00942224      -0.01310056
C        0.99568216       0.43242744       0.79217591       0.00476396      -0.00366026       0.01314580
Br       1.82141133      -0.90782076      -0.28363207      -0.00776166       0.00511155      -0.00406480
C       -0.76575450       0.64912343       0.71450919       0.00543215      -0.03529334      -0.00124288
O       -1.25402139       0.95806802       1.80871272      -0.00355363       0.00451022       0.01034522
C       -1.26279482      -0.50152147      -0.18318325       0.00787431       0.01532984       0.00224048
C       -2.78387042      -0.45106104      -0.29209121       0.00456595      -0.00001109      -0.00578749
O       -3.41495372       0.52608696      -0.57613299      -0.00653338       0.00091350       0.00010636
O       -3.33320022      -1.64591497      -0.03353276      -0.00688386      -0.00067283       0.00036550
H       -0.71329631       1.53241316      -0.14681568       0.00812680       0.00680602      -0.00511050
H        0.57168931       2.52892146       0.93207397      -0.00280350       0.00234529       0.00347906
H        1.02488110       1.58082259      -1.88533684       0.00349045       0.00656772       0.00125694
H        2.52354378       1.94608205      -1.04345432       0.00084718      -0.00276008       0.00138924
H        1.29161988       3.21507133      -1.22946236      -0.00134300       0.00177082      -0.00107783
H        1.17177028       0.29633471       1.85042180       0.00334281       0.00527938       0.00001872
H       -0.83868666      -0.36855440      -1.17706315      -0.00329420      -0.00334777      -0.00078583
H       -0.95827063      -1.46778742       0.21743777       0.00084379       0.00128225       0.00088702
H       -4.29305255      -1.53168256      -0.10836693       0.00490647       0.00191075      -0.00018655
