11
Properties=species:S:1:pos:R:3:forces:R:3 /mnt/e/work/rmlp/database/CAMD/log/success_log/ts_138_1_A-I-4_opt.log=T energy=-28490.298360760862 pbc="F F F"
N       -0.97936108       1.41070595      -0.96507098      -0.00420988      -0.00648081      -0.01919855
C       -0.82516242       0.33419867      -0.24302315      -0.01978540      -0.02290070       0.00594530
S       -1.68580982      -0.97180834       0.24721995       0.01705045       0.01323593      -0.01154596
N        0.60589500       0.60500615       0.14791195       0.02019471      -0.00702125      -0.02341557
C        0.84668668       0.69353975       1.59214623      -0.01951954       0.02711040       0.00366879
Cl       1.64691946      -0.50064211      -0.63763894      -0.01039592      -0.01161969      -0.00466082
H       -1.84992933       1.56709584      -1.45554308       0.01420105       0.00272804       0.01638728
H        0.28940660       1.59043214      -0.58801193      -0.00375535       0.00725320       0.03631663
H        1.91718762       0.73957800       1.76166177      -0.00146291      -0.00122225      -0.00493873
H        0.41722656      -0.18685088       2.07366225       0.00300281       0.00083178       0.00378704
H        0.36303074       1.59237485       1.97588594       0.00467990      -0.00191426      -0.00234559
