49
Properties=species:S:1:pos:R:3:forces:R:3 /mnt/e/work/rmlp/database/CAMD/log/success_log/ts_195_1_A-I-5_opt.log=T energy=-31282.478267952109 pbc="F F F"
N        0.17797015      -0.49466567       0.67530380      -0.00407600      -0.04194222      -0.01959974
C       -0.54187919      -0.19481087      -0.39134054       0.01385212      -0.00324988       0.03402090
O       -0.39899035      -0.05818916      -1.58270367      -0.00060762      -0.00971709      -0.00124145
N       -1.90150419      -0.05208604       0.34876354       0.01111373      -0.00439633      -0.05247825
C       -2.93648073      -0.99160760      -0.02727746      -0.00529838      -0.00698622       0.03742975
C       -4.16319030      -0.92989357       0.63365030       0.02641360      -0.05438007       0.05914418
C       -5.13967480      -1.87097666       0.35667131       0.00076915      -0.00107080       0.00071212
C       -4.91130634      -2.87105573      -0.57985452      -0.00091978       0.00245886      -0.00261215
C       -3.69806409      -2.90686582      -1.24873894      -0.00077396       0.00062586       0.00026281
C       -2.70937169      -1.96564929      -0.99003646      -0.02583076       0.04636867      -0.05871585
C       -2.30847808       1.33487970       0.44879946       0.03096534       0.01117197      -0.03941600
C       -2.47523112       1.92957557       1.69144721      -0.02171522      -0.00678622      -0.00100435
C       -2.87598263       3.25671913       1.75746040      -0.00232879      -0.00080145       0.00008381
C       -3.08881981       3.98242794       0.59482630       0.00045392       0.00067657       0.00012706
C       -2.89443296       3.37980975      -0.64090684      -0.00437554      -0.00128143       0.00010325
C       -2.48996291       2.05815131      -0.71707296       0.02082071       0.00592797       0.00107901
C        1.57313299      -0.67166629       0.68467397       0.00412020       0.02332646       0.01302581
C        2.08141712      -1.65132244       1.53214410      -0.00057178       0.00462364       0.00525035
C        3.43885922      -1.87956234       1.60991081       0.00090604      -0.00830886      -0.01007885
C        4.33980835      -1.15023757       0.83766200       0.00104339       0.00788721       0.01018615
C        5.82036551      -1.40059344       0.93528226       0.00009143      -0.00160453      -0.00167242
C        3.81795664      -0.20010865      -0.03372428       0.00071189      -0.00113714      -0.00362498
C        4.77557338       0.48852258      -0.97706031      -0.00119162      -0.00524485      -0.00485885
C        4.65869994       0.11413673      -2.43032523      -0.00319849       0.00084585       0.00011754
O        5.60792885       1.26628519      -0.56996912       0.00087678      -0.00074649       0.00020748
C        2.45172659       0.11134186      -0.07557574      -0.00408624      -0.01221269      -0.01512238
C        1.96841826       1.30333702      -0.85802117       0.00122979       0.01133275       0.01553077
H       -1.06243407      -0.38401861       1.22134890      -0.03178310       0.02462378       0.03919341
H       -4.35248595      -0.14815623       1.35550832      -0.00278933       0.00852945      -0.00984669
H       -6.08579756      -1.82477626       0.87938924       0.00037235      -0.00058369       0.00067601
H       -5.67357697      -3.60889147      -0.79066892       0.00067502      -0.00106770       0.00127768
H       -3.50577551      -3.67245246      -1.98831325       0.00255669      -0.00438520       0.00516641
H       -1.79389895      -1.98861814      -1.56396616      -0.00595826       0.01271947      -0.00986412
H       -2.29354934       1.36359477       2.59717266       0.00274985       0.00168353       0.00060222
H       -3.01930576       3.72467756       2.72230064      -0.00208965      -0.00077096       0.00005555
H       -3.40395095       5.01568055       0.65212839      -0.00080118      -0.00019279      -0.00004136
H       -3.04894181       3.94183680      -1.55198434       0.00327844       0.00072193      -0.00011390
H       -2.29439434       1.58191790      -1.66807685      -0.00712921      -0.00171569      -0.00046241
H        1.38905573      -2.23493316       2.12754591       0.00083017       0.00382322       0.00485045
H        3.80771419      -2.64705507       2.27861372       0.00008693       0.00173578       0.00159091
H        6.17676295      -1.98310116       0.08041472      -0.00095389      -0.00366715       0.00217053
H        6.05476155      -1.96373116       1.83771955       0.00032368       0.00358105       0.00213680
H        6.37852962      -0.46668115       0.94654863       0.00026059      -0.00011578      -0.00435437
H        5.36713466       0.69109612      -3.01923953       0.00079134      -0.00057338       0.00017385
H        3.64742764       0.27183534      -2.80942235       0.00069669       0.00075957       0.00076018
H        4.87248522      -0.95211240      -2.54511249      -0.00081288      -0.00004473      -0.00006732
H        2.79407593       1.98596275      -1.06545025      -0.00061032       0.00173019       0.00338836
H        1.20316385       1.84075858      -0.29124919      -0.00286843      -0.00248110      -0.00159353
H        1.47869209       1.01460127      -1.78569559       0.00478153       0.00031076      -0.00255382
