28
Properties=species:S:1:pos:R:3:forces:R:3 /mnt/e/work/rmlp/database/CAMD/log/success_log/ts_187_1_NO2-A-7-a_opt.log=T energy=-31528.829785038663 pbc="F F F"
N       -3.53347005      -1.71780563       0.58939660      -0.00161529      -0.00608170       0.01183605
C       -2.62591527      -0.84152564       0.12692965       0.01165730      -0.00045116      -0.00581980
O       -2.61764812      -0.46230356      -1.03251983       0.00544113      -0.00399429       0.00085127
C       -1.59619879      -0.31353557       1.12027677      -0.00713134      -0.00444200       0.00617063
C       -0.49242558       0.43988618       0.42223739      -0.00055730      -0.01244837      -0.00044346
N       -3.28563078       2.99281488       0.31874222       0.00903618       0.00481319       0.00637913
O       -3.63071872       4.02752077       0.07883249      -0.01466966       0.00686884      -0.00380397
S        0.18133577      -0.49347318      -0.95608312      -0.01218522      -0.00375134       0.01165563
O       -0.19045968      -1.91396055      -0.72648006       0.00578050       0.00966417      -0.00197449
C        1.86883051      -0.30293904      -0.41014789       0.00299191       0.00217240      -0.00490035
C        2.60350468       0.82479507      -0.75456248      -0.00211753      -0.00414089       0.00534023
C        3.91291808       0.92828184      -0.30771521       0.00730860       0.00108305      -0.00474466
C        4.47754588      -0.08917987       0.45132687      -0.00898704       0.00363858       0.00168499
C        3.73052865      -1.21168351       0.77912410       0.01270594      -0.00547399       0.00133318
C        2.41887719      -1.32528103       0.34409623       0.00386018       0.00501081       0.00373190
O       -1.70444900       2.25589076      -0.88042644      -0.00039291       0.01254934       0.00080311
H       -3.47803385      -2.11016032       1.51156446      -0.00241017      -0.00202766      -0.00257012
H       -4.17327978      -2.11710931      -0.07755708      -0.00359242       0.00154946      -0.00254232
H       -1.19227396      -1.14536688       1.70466753      -0.00231148       0.00526188      -0.00116739
H       -2.10746013       0.33928597       1.83453250      -0.00135067       0.00232081      -0.00099541
H        0.25991012       0.84039419       1.10134985      -0.00223172      -0.00399843      -0.00327575
H        2.16609161       1.60453942      -1.36811778       0.00069219      -0.00045106       0.00188762
H        4.49475258       1.80744208      -0.55068893      -0.00115544       0.00106037      -0.00120664
H        5.50461939      -0.00717725       0.78034083      -0.00145775      -0.00275360      -0.00322174
H        4.16688648      -2.00065659       1.37606256      -0.00314550      -0.00099432       0.00075033
H        1.82734914      -2.20548052       0.56045593       0.00126857      -0.00075349      -0.00397786
H       -1.06263488       1.47664889      -0.26669189       0.00747591      -0.00688960       0.00112718
H       -1.98871149       1.62907839      -1.56374527      -0.00290602       0.00266047      -0.01290926
