26
Properties=species:S:1:pos:R:3:forces:R:3 /mnt/e/work/rmlp/database/CAMD/log/success_log/ts_188_1_A-E-8_opt.log=T energy=-14120.728756570028 pbc="F F F"
C       -0.88944134      -0.20009458      -1.15234230       0.01373601       0.01102227       0.02888733
C       -2.28236143      -0.30881326      -1.32673616      -0.00555462      -0.01752162      -0.00889242
C       -2.02090869       0.13412367       0.42282577       0.00471264       0.01046085       0.00736925
C       -2.73603603       1.46007060       0.58209090      -0.00892550       0.00800550       0.00166404
O       -2.13327097      -0.83492112       1.19109329       0.00773558      -0.00009751      -0.00432813
C       -0.03989209      -1.37366889      -0.73109382      -0.01337260      -0.01597482      -0.02281609
C        1.36528301      -0.94948217      -0.35779607       0.00206852       0.00115341       0.01610267
O        2.33507269      -1.27841246      -0.99567925      -0.00634480       0.01307467      -0.01297861
C        1.49600562      -0.04396002       0.86634077      -0.00297973      -0.01451609       0.00128567
N        1.62700247       1.32855617       0.40042245       0.00420338       0.01938528       0.00201225
C        2.99760724       1.71720917       0.09578206       0.00227189      -0.00487751       0.00875618
H       -0.90895842       0.55302532       0.22483922       0.01047510      -0.01052728      -0.01942783
H       -0.34856727       0.63747804      -1.59304116      -0.00168738      -0.00036949      -0.01149725
H       -2.82350937       0.48290116      -1.82939201      -0.00533469       0.00164884       0.00782725
H       -2.75247309      -1.28908148      -1.31789316       0.00317242       0.00089355       0.00489375
H       -2.43144466       2.17044455      -0.17869091       0.01645346       0.00049564       0.00495082
H       -3.81765483       1.32159658       0.60776605      -0.00022040       0.00322124      -0.00987075
H       -2.42700564       1.84740333       1.55407929      -0.01191560      -0.00282648       0.00552970
H       -0.54374090      -1.81770693       0.13579043      -0.00636487       0.01286690       0.00026646
H        0.02975457      -2.11856636      -1.52946294       0.00508877      -0.00369384       0.00702006
H        0.59750997      -0.16573980       1.47919495       0.00242081       0.00582051       0.00430544
H        2.36396172      -0.38344534       1.44282056       0.00664282      -0.00406069      -0.01039345
H        1.21202076       1.96563240       1.06460984      -0.01493731      -0.01472822      -0.00102886
H        3.36720454       1.09484605      -0.71753087       0.00145645      -0.00863290       0.00451636
H        3.68709890       1.61290856       0.94317317      -0.00075698       0.01243904       0.00350854
H        3.01745325       2.75473680      -0.23318014      -0.00204403      -0.00266093      -0.00766271
