28
Properties=species:S:1:pos:R:3:forces:R:3 /mnt/e/work/rmlp/database/CAMD/log/success_log/ts_183_1_R-A-8_opt.log=T energy=-14152.795915736495 pbc="F F F"
O        1.64168603       1.03521503      -0.15549104      -0.00470757       0.00440043      -0.01429147
C        2.96175320       0.85403079       0.27772592       0.02613986       0.00490177       0.00744088
C        3.89194058       0.62118525      -0.90939065      -0.01852632       0.00443830       0.00765526
C        2.73291536      -0.35004644       1.17451295      -0.00030559      -0.00849468       0.00357139
C        1.22765244      -0.51009293       1.00276589      -0.01449609       0.01375775       0.00047160
N       -0.26068685      -0.56514414      -0.39696751      -0.01229757      -0.00102472       0.00023443
C       -0.40586604      -1.80465051      -1.13380092       0.00404236      -0.00063550       0.02365130
C       -1.47653885      -0.08859269       0.25780998      -0.00179173      -0.00349796      -0.00852191
C       -2.70698733      -0.17439740      -0.63545412       0.00664274       0.00093424      -0.00664377
C       -3.86102375       0.61403321      -0.08796920      -0.01224065       0.01309967       0.01732063
O       -3.84508698       1.18587504       0.97021348       0.00284556      -0.01195651      -0.01556706
H        0.20231360       0.19079524      -0.90886362       0.00501183       0.00549811      -0.00001913
H        3.33047513       1.71321053       0.86082217      -0.00231664       0.00450617      -0.00129114
H        4.21075175       1.57501464      -1.33266002       0.00626415       0.00133330       0.00091420
H        3.33878057       0.08303454      -1.67932269       0.00185577       0.00213446      -0.00812882
H        4.78804773       0.05515305      -0.64573650       0.00085963      -0.00242085      -0.00040349
H        3.25544666      -1.25922125       0.86278790      -0.00556204      -0.01234014      -0.00213293
H        2.95364430      -0.16486729       2.23060359       0.00164065       0.00050634      -0.00067533
H        0.60554865       0.14171236       1.59587439      -0.00331253      -0.00421847      -0.00053993
H        0.92914934      -1.55316079       1.08358853       0.01004574      -0.00551566       0.00360873
H       -0.95163584      -1.66354710      -2.07165407      -0.00264986       0.00195678      -0.00317824
H       -0.94816645      -2.52773180      -0.51893002       0.00144837      -0.00263228      -0.00339165
H        0.57403661      -2.22079616      -1.37085835      -0.00015059      -0.00360053      -0.00430822
H       -1.34218471       0.95248281       0.55932392      -0.00261429       0.00419277      -0.00148694
H       -1.64713006      -0.65515595       1.18233211       0.00773497      -0.00379710      -0.00071642
H       -2.47900166       0.19949713      -1.63909814      -0.00052543       0.00277823       0.00094866
H       -3.04041716      -1.20914808      -0.77458184      -0.00035989      -0.00619379       0.00472721
H       -4.77217625       0.64821290      -0.71904214       0.00732550       0.00189011       0.00075305
