10
Properties=species:S:1:pos:R:3:forces:R:3 /mnt/e/work/rmlp/database/CAMD/log/success_log/ts_138_1_A-D-1_opt.log=T energy=-76290.912823901366 pbc="F F F"
O        1.39455909      -0.56687229       1.12216623       0.00450855       0.00839108      -0.00160444
C        0.87095321       0.07861025       0.14057335       0.00017226      -0.03590301       0.00292552
C        1.33575881       1.44650983      -0.27886961       0.00481206       0.01507556      -0.00622934
Br      -1.15014815       0.11318339       0.06197424      -0.00721991       0.00702443       0.00202222
O        1.32099248      -0.98293366      -0.95783872      -0.01090467      -0.00092161       0.01323357
H        1.68226905      -1.35093998       0.08021387       0.00707322       0.00258183      -0.00158632
H        0.95983229       1.67535067      -1.27124565       0.00307710      -0.00163284      -0.00038713
H        0.93414189       2.15763245       0.43588109      -0.00297807       0.00076317      -0.00155156
H        2.42439195       1.46846449      -0.26401584      -0.00151525      -0.00019029       0.00362153
H        0.53405936      -1.47895516      -1.22351896       0.00297415       0.00481194      -0.01044425
