27
Properties=species:S:1:pos:R:3:forces:R:3 /mnt/e/work/rmlp/database/CAMD/log/success_log/ts_176_2_A-E-9_opt.log=T energy=-21260.688542243341 pbc="F F F"
C        2.02844939       0.43311146       0.40658511      -0.01182288       0.00923115       0.00161034
C        1.73316490       1.60170178      -0.53568630      -0.00603557      -0.00062907       0.01001543
C        2.88928637       2.12575984      -1.34228984       0.01046622       0.01601684       0.02183902
O        0.61389941       2.03743394      -0.63214185      -0.00766981      -0.01684606      -0.01828013
C        1.08473281      -0.69797105       0.15402817      -0.03104389       0.01086320       0.01137756
C       -0.80228230      -1.24596425       1.39535781      -0.01434967      -0.02595216      -0.02656782
O       -0.48433156      -1.96349012       2.22822194       0.00553757       0.01632369       0.02448308
C       -1.65906192      -0.39702855       0.62515534       0.00953269       0.01397204       0.00914496
C       -1.88902270       0.92051715       1.03268846      -0.00633873       0.00053127       0.00394037
C       -2.73421453       1.73066148       0.29690951       0.00129906      -0.00245359      -0.00455791
C       -3.37585692       1.23628915      -0.82738147       0.00258765       0.00165705       0.00347159
C       -3.15758798      -0.07258176      -1.22932014      -0.00188162       0.00042370       0.00020619
C       -2.30717688      -0.89266562      -0.51093236       0.00176486      -0.00209892      -0.00823362
N        1.59949674      -1.99372833       0.49014794      -0.00131041       0.00056326       0.00738391
O        1.18140022      -2.96069133      -0.12888822      -0.00234735       0.00211239       0.00123709
O        2.39988239      -2.06395258       1.40973345       0.00296819       0.00279318      -0.00186253
H        1.94345223       0.78125398       1.44056893       0.03468528      -0.01079832       0.00331239
H        3.05905221       0.10386966       0.26771598      -0.00596899      -0.00755620      -0.02600431
H        3.37552369       1.30310270      -1.87297586      -0.00135532      -0.00156212       0.00091834
H        3.64251957       2.57311411      -0.68757345       0.00044192       0.00205614      -0.00263066
H        2.54280044       2.86805201      -2.05424057      -0.00211342      -0.00025831       0.00015599
H        0.49186928      -0.66495376      -0.74828661       0.02339703      -0.00589070      -0.00997728
H       -1.39816707       1.30377439       1.91832324      -0.00034723      -0.00074555      -0.00036776
H       -2.89998236       2.75647616       0.59827846       0.00173387      -0.00205576       0.00037238
H       -4.04851368       1.86910128      -1.39098232      -0.00048196       0.00047082      -0.00084248
H       -3.65724816      -0.44960540      -2.11157097       0.00063632      -0.00044286       0.00011402
H       -2.12681359      -1.91210635      -0.82602438      -0.00198370       0.00027514      -0.00025814
