24
Properties=species:S:1:pos:R:3:forces:R:3 /mnt/e/work/rmlp/database/CAMD/log/success_log/ts_189_2_A-E-24_opt.log=T energy=-92439.457853105909 pbc="F F F"
C        0.79132264      -1.74091721      -1.75372527      -0.00863612       0.03859554       0.00780988
O        1.83851058      -1.77179016      -0.74936806       0.02374029      -0.08184826      -0.02717021
C        1.56481476      -2.23025623       0.43356643      -0.00376990       0.03095561      -0.00575340
C        1.33684461      -0.34735761       1.69088130      -0.02689743      -0.01382613      -0.05356826
C        0.45167984       0.83952888       1.77443068       0.01348364      -0.00066292      -0.01109165
C        0.78076942       1.97983814       0.84384880      -0.02070712       0.01459086      -0.00020218
C        1.56250344       1.59414944      -0.41697881       0.01904130       0.00070834       0.01368612
C        0.90700797       1.80172053      -1.75771385       0.00131741       0.00652647      -0.00126648
O        2.71440920       1.21857006      -0.32968877      -0.00457263      -0.01410797      -0.00052910
S       -0.60881580      -0.55578829       1.39472009      -0.06003332       0.00924420       0.05867016
Br      -1.96202431       0.61886845      -0.40031194       0.02285480      -0.00154838      -0.02044347
H       -0.16558551      -1.51238281      -1.28078353      -0.00141752      -0.01183932       0.00283132
H        1.06904646      -0.93808449      -2.43612017      -0.00537768       0.00736766       0.00675399
H        0.74894072      -2.70076976      -2.26753804       0.00658047       0.00353651      -0.00639275
H        2.42690878      -2.38650596       1.07837309      -0.00086027       0.01893315       0.00426254
H        0.67415316      -2.84750095       0.56466600       0.00477314      -0.00489675       0.00726023
H        1.52835062      -0.94882510       2.56752367      -0.00098938      -0.00218802      -0.00125402
H        2.19029695      -0.18182727       1.04042381       0.01300822       0.00975203       0.01954061
H        0.15742367       1.19624086       2.75597277       0.05414762      -0.00825900       0.01921877
H        1.43052546       2.67105588       1.39208697      -0.02468176       0.01700976       0.00802185
H       -0.11716228       2.52647479       0.56344430      -0.00343429      -0.01719099      -0.02208643
H        1.66852977       1.79327249      -2.53528961       0.00138527       0.00728779       0.00305943
H        0.17526130       1.01057814      -1.94572665       0.00696903      -0.00490364      -0.00397709
H        0.36186854       2.74832816      -1.76927322      -0.00592426      -0.00323698       0.00261990
