23
Properties=species:S:1:pos:R:3:forces:R:3 /mnt/e/work/rmlp/database/CAMD/log/success_log/ts_125_1_A-E-8_opt.log=T energy=-14629.199164963529 pbc="F F F"
C       -1.29348864       0.42689083       0.23872931      -0.01069844       0.01662835      -0.01879261
C       -1.77200942      -0.95074085      -0.12426225       0.02283251      -0.00391161       0.01393104
C       -2.80492514      -1.57706343       0.77096402      -0.02410829       0.00069952      -0.00238389
O       -1.29690203      -1.52619168      -1.07874107      -0.00468621       0.00362241      -0.01150227
C       -0.69420271       1.27255637      -0.71600252       0.01196992      -0.02115571       0.01971257
C       -0.69733514       2.76480728      -0.58726912      -0.00144578       0.00176978       0.00001442
C        0.57953254       0.68979441       0.40379404       0.00427186      -0.01752734       0.00046349
O        0.99988168       1.60299558       1.11878989      -0.01175165       0.01076794      -0.02452970
C        1.40813713      -0.22731347      -0.50033364       0.00501719       0.00141075      -0.00851488
C        2.21196230      -1.22458532       0.31041190      -0.00104117      -0.01454389       0.00325164
O        3.29940426      -1.59888536      -0.03018036      -0.00965667      -0.00582191      -0.00937259
H       -0.04923613      -0.12280603       1.02815748       0.01800656      -0.00029325       0.01767133
H       -1.66905298       0.82896997       1.17396087      -0.02008852       0.00528723      -0.00026786
H       -3.00216327      -2.59830692       0.46608742       0.00324507       0.00050773       0.00215811
H       -3.72883720      -0.99608980       0.72862761       0.00602335      -0.00356571      -0.00141068
H       -2.45560448      -1.54344845       1.80361012       0.00362647      -0.00134636       0.00778030
H       -0.56506675       0.87429894      -1.71345007      -0.01076907       0.00866753      -0.00337553
H       -1.56636247       3.22586794      -1.06208328       0.00035515       0.00212421      -0.00041063
H        0.20268042       3.18299311      -1.04223963       0.00116828       0.00044800       0.00141363
H       -0.65752257       3.03668253       0.46528401      -0.00304991       0.00120795       0.00203741
H        2.11493331       0.38455645      -1.06277177       0.00454404       0.00444768       0.01792841
H        0.77170751      -0.78529081      -1.18959420       0.00928260       0.00841124      -0.01949758
H        1.73913978      -1.60161130       1.24581125       0.00695232       0.00216587       0.01369530
