16
Properties=species:S:1:pos:R:3:forces:R:3 /mnt/e/work/rmlp/database/CAMD/log/success_log/ts_179_1_A-E-17_opt.log=T energy=-23855.200080211191 pbc="F F F"
C        2.26585554       0.48595168       0.87212845      -0.01138568      -0.00208294       0.01645982
C        1.77886605      -0.13019604      -0.40791460      -0.00958848       0.01576436      -0.00673771
O        2.52009106      -0.66912248      -1.19295744       0.01720512      -0.01160413      -0.01184392
C        0.31289849       0.00146490      -0.77523660      -0.00881106      -0.00699228       0.00453123
Cl      -0.65998030      -1.10786745       1.00596218      -0.00127873      -0.00237873       0.00782511
C       -0.46010232       1.16704905      -0.59436539      -0.00138915      -0.00427580       0.00177372
N       -0.28641042       1.93606138       0.53878927       0.00927949       0.01366255      -0.00657272
N       -2.19917432       0.28146229      -0.05680613       0.01143110       0.00144070       0.03176534
O       -2.77144900      -0.14110430      -0.93839722      -0.01485586      -0.00853550      -0.03067076
H        3.35019161       0.42060334       0.88891518      -0.00176458       0.00072947      -0.00246614
H        1.86260981      -0.04868705       1.73419661       0.00430647      -0.00254135      -0.00170422
H        1.94470151       1.52613360       0.94096368       0.00425458       0.00169748      -0.00320403
H        0.01197165      -0.70934922      -1.53396332       0.00094450       0.00554806       0.00177093
H       -0.82522705       1.68934717      -1.47960848       0.00829268       0.00361654      -0.00113358
H       -1.06335218       2.54485527       0.74689889      -0.00400981      -0.00202966       0.00348075
H       -0.08241013       1.33777787       1.33780492      -0.00263080      -0.00201917      -0.00327414
