20
Properties=species:S:1:pos:R:3:forces:R:3 /mnt/e/work/rmlp/database/CAMD/log/success_log/ts_15_1_NO2-A-5-e_opt.log=T energy=-85501.601822836325 pbc="F F F"
O       -0.87465452      -1.44040704       0.50341554       0.00291373       0.00347483       0.00230297
C       -0.87966055      -0.22070379       0.33394092      -0.00690642      -0.01852584       0.00323835
C       -2.01238582       0.47817167      -0.27284960       0.02909601       0.00691038      -0.01644755
N       -3.12243670      -0.27217919      -0.82531591      -0.02471143       0.01387364       0.02723613
O       -3.12029148      -1.54377166      -0.62533285      -0.00220335      -0.01848862      -0.02015382
N        0.17119714       0.55277164       0.78128248      -0.02127314       0.01893923       0.02125502
C        0.21461326       1.96846234       0.45772984       0.01234127      -0.00023878      -0.00181390
O        0.63629453       2.24094814      -0.85253155      -0.02806100      -0.00367898      -0.00500095
C        1.37475263      -0.08380495       1.13096856       0.00481009      -0.00420541      -0.01327166
Br       2.58936648      -0.51551536      -0.40513321      -0.00029045      -0.00003770       0.00923896
O       -4.17939226       0.47173999       0.57071309       0.01033577      -0.01816750      -0.00011688
H       -1.80402966       1.34411157      -0.88884739      -0.01120029      -0.00136888       0.00026576
H       -2.28514158      -1.80429409      -0.12009020       0.00127628       0.00910717       0.00810845
H        0.89429810       2.43791882       1.16861683       0.00487438      -0.00682610      -0.00519174
H       -0.78142674       2.38305341       0.59873328       0.00616893       0.00354365       0.00574166
H        0.90328353       1.39901886      -1.24431461       0.02324012       0.00496201      -0.00268078
H        1.16779815      -1.04646695       1.57257378       0.00210421       0.00077179      -0.00629251
H        1.97450262       0.55642851       1.76523737      -0.00466618      -0.00130062       0.00411232
H       -2.89269733       0.88416715       0.57609459       0.00043190       0.00419199      -0.00493932
H       -4.70384979       1.10751094       0.06483906       0.00171835       0.00706390      -0.00559011
