19
Properties=species:S:1:pos:R:3:forces:R:3 /mnt/e/work/rmlp/database/CAMD/log/success_log/ts_151_1_RR-A-8-c_opt.log=T energy=-10946.282830448774 pbc="F F F"
N       -0.92210294       0.87868325       0.02634265      -0.02175489       0.02896199       0.00605959
C       -1.64880318      -0.20967698       0.64057064       0.01032096       0.00157279      -0.00447953
C       -2.59144951      -0.85551197      -0.35844414       0.00935423      -0.00718623      -0.00535893
C        0.36123550       1.04696730      -0.01270801       0.01886500      -0.01237923       0.00803712
O        0.61240087       2.07615938      -0.74364157      -0.01060277      -0.00807142      -0.00622535
C        1.44653477       0.27871372       0.67340579      -0.00572503       0.00768584      -0.00160547
O        1.27391846      -1.11449790       0.59455049       0.00979871      -0.00486031       0.00024253
C        1.54182466      -1.62316452      -0.69954402      -0.00807086       0.00586557      -0.00191808
H       -0.71074881       1.96038674      -0.71861235      -0.00024432       0.00300600      -0.01081623
H       -0.96596133      -0.95596968       1.04942707       0.00042426      -0.00289781       0.00045870
H       -2.22365999       0.19470618       1.47800558       0.00612941      -0.00479874       0.00533842
H       -3.14433822      -1.67404622       0.10272914      -0.00385662      -0.00087514      -0.00137825
H       -2.04197383      -1.25453284      -1.21005266       0.00252277       0.00242625       0.00791004
H       -3.30924509      -0.12174250      -0.72509030      -0.00510004       0.00344584      -0.00337346
H        1.46970560       0.55683214       1.72942181       0.00004368      -0.00678314      -0.00174426
H        2.38020131       0.61208377       0.21079994      -0.00305877      -0.00090632       0.00775476
H        0.94605043      -1.10283763      -1.45922584       0.00142953      -0.00274849      -0.00015438
H        2.60219268      -1.52086927      -0.94900284       0.00143850      -0.00169688       0.00249544
H        1.27669861      -2.67685298      -0.69047137      -0.00191358       0.00023964      -0.00124351
