29
Properties=species:S:1:pos:R:3:forces:R:3 /mnt/e/work/rmlp/database/CAMD/log/success_log/ts_132_1_S-A-15_opt.log=T energy=-20945.081900151050 pbc="F F F"
O        0.86145341      -0.11580866       1.51400678      -0.00038305       0.00501511       0.00780773
C        0.28594538       0.01115300       0.47427058      -0.00711468      -0.00276852      -0.01912570
N        0.83461828       1.11746335      -0.50276593       0.00675404       0.00375064       0.01149476
C        0.02817697       2.28172923      -0.87785014       0.01686525       0.00419307      -0.02695358
F        0.38251527       3.31832698      -0.04264308       0.01333175      -0.00201610      -0.01565754
C       -1.13361381      -0.35732175       0.20320683       0.00169909       0.00264230      -0.01411162
C       -1.96020575      -0.46800382       1.31589571       0.01712170      -0.00580911      -0.00064208
C       -3.29448767      -0.79951167       1.15049451      -0.00001912       0.00161493       0.00406729
C       -3.80326490      -1.01661569      -0.12088537      -0.00167023      -0.00435877       0.00309481
C       -2.97735779      -0.90088150      -1.23208977       0.01146030       0.00482739      -0.00281580
C       -1.64252245      -0.56360498      -1.07570076      -0.01737118       0.00054317       0.00645513
O        1.16219575      -1.24778035      -0.96621045      -0.00071895       0.00160092       0.00292528
C        2.39038690      -1.53597019      -0.48128456       0.00367761      -0.01223022      -0.00832831
O        3.20542654      -0.34803738      -0.46361118      -0.00057429       0.01005095       0.00879097
C        4.09469977      -0.31081939       0.62964452      -0.01758370       0.00001995      -0.00597802
H        1.70778593       1.42899839      -0.07385700      -0.01626533      -0.00343522       0.02842671
H        0.27235799       2.56517160      -1.89861856      -0.02072409      -0.02105755       0.00061372
H       -1.02996234       2.08988411      -0.74258178       0.00021395       0.00739612       0.02549239
H       -1.54306079      -0.28963413       2.29788482      -0.00725348      -0.01142215       0.00493038
H       -3.94498508      -0.89337737       2.01039988       0.00017688       0.00313144      -0.00158569
H       -4.84709439      -1.27506271      -0.24644806      -0.00140828       0.00097114       0.00028358
H       -3.37721587      -1.06777252      -2.22341075       0.00064306       0.00240576      -0.00044417
H       -0.99857615      -0.47971405      -1.93893756       0.00322363      -0.00770948      -0.00390390
H        1.08449888       0.40699850      -1.25164354       0.01082629       0.01911157      -0.00641465
H        2.36932392      -1.91285358       0.56037257      -0.00240269       0.00523007       0.00052869
H        2.91917777      -2.27482508      -1.10195863      -0.00043458      -0.00041670       0.00254929
H        4.89203096      -1.05777812       0.53435119       0.00198770      -0.00353372      -0.00112802
H        4.55289905       0.67673964       0.65198368       0.00472268       0.00087166       0.00023526
H        3.57826422      -0.47733187       1.58161610       0.00121865       0.00138047      -0.00060624
