13
Properties=species:S:1:pos:R:3:forces:R:3 /mnt/e/work/rmlp/database/CAMD/log/success_log/ts_191_2_R-A-10_opt.log=T energy=-12735.630938445762 pbc="F F F"
O       -1.64181310       0.84919010       0.75288131      -0.03598237       0.00580835      -0.00958782
C        0.23793206      -0.23043720      -0.18147900      -0.00117177       0.00924622      -0.00943309
O        1.19480005      -0.69357628       0.51023889      -0.01670891      -0.00784630       0.01435316
C        2.48927073      -0.73835521      -0.11604329       0.01756573       0.01167777      -0.00352722
C       -1.18436351      -0.29450503       0.36995425      -0.01716757      -0.02596843      -0.02316606
F       -1.87386964      -0.82899332      -0.75152139       0.00179608       0.00278088       0.02741158
F        0.19675420       1.96789083      -0.20744490       0.03752458       0.00568470       0.00524226
H       -0.69863037       1.73765821       0.18819975      -0.00959562      -0.00378293       0.00933019
H        0.44559299       0.04246953      -1.21620254      -0.00682679      -0.00103703      -0.00551531
H        3.17626745      -1.19157699       0.59093162       0.00044413       0.00117335      -0.00340999
H        2.77498688       0.28304272      -0.35244615       0.00145784      -0.00508797       0.00475801
H        2.40429506      -1.32131039      -1.03187199       0.00917837      -0.00737196      -0.00950158
H       -1.21490281      -1.09502697       1.12759345       0.01948650       0.01472253       0.00304544
