18
Properties=species:S:1:pos:R:3:forces:R:3 /mnt/e/work/rmlp/database/CAMD/log/success_log/ts_226_1_A-E-11_opt.log=T energy=-12959.199151141760 pbc="F F F"
C       -0.84771283      -0.86142254      -0.79117056       0.00238357       0.00139385      -0.01030284
C       -2.17706564      -1.20820295      -0.32720179      -0.01271081       0.00548559       0.01003695
O       -2.64435048      -0.87209316       0.75324047       0.00165522      -0.00477540      -0.01464796
C        0.23402868      -0.35740164       0.09396991      -0.00245804      -0.01033628       0.00441271
O        1.41625217      -0.95522637      -0.31928425       0.00759858       0.00408822      -0.00399119
C        2.51288412      -0.67250444       0.54558515       0.00035134       0.01147397      -0.00730866
C        0.27088046       1.18225665      -0.14971230       0.02270043       0.01312375       0.01508236
N       -0.56134845       1.76774274       0.88135586      -0.01587272      -0.00562233       0.00347555
O        1.32418205       1.78997581      -0.44490775      -0.00044894      -0.01451778      -0.00210458
H       -0.53909912       0.95892826      -1.23060798      -0.00567293      -0.00656301      -0.00473332
H       -0.53942661      -1.26514874      -1.75213306      -0.00416982       0.00636524       0.00198007
H       -2.78121868      -1.81245971      -1.03038395      -0.00053540      -0.00630024       0.00487381
H        0.00471717      -0.57135361       1.14988218      -0.00260550       0.00582904       0.00050721
H        2.82034435       0.36905148       0.45068217      -0.00324571      -0.00181055      -0.00025907
H        2.25303705      -0.89515392       1.58601896      -0.00049798      -0.00023922       0.00099099
H        3.31783111      -1.33078016       0.23150249       0.00133157       0.00139868       0.00360070
H       -0.62670591       2.75631540       0.67878891       0.01113851       0.00086832      -0.00406566
H       -1.47266943       1.32826691       0.91481554       0.00105818       0.00013831       0.00245187
