16
Properties=species:S:1:pos:R:3:forces:R:3 /mnt/e/work/rmlp/database/CAMD/log/success_log/ts_21_1_RR-A-1_opt.log=T energy=-9874.296654619631 pbc="F F F"
C       -1.83044450      -0.76698132      -0.95120837       0.00233567       0.02637553       0.00005782
C       -1.23353861       0.07988323      -0.01503583      -0.00353698      -0.00057822      -0.01473743
O       -1.86078239       0.05107082       1.10605211      -0.01139098      -0.00008662       0.00302637
C        0.04066703       0.83270683      -0.16554667       0.00166023      -0.00619936       0.00843945
N        1.11861073      -0.15212213      -0.18066759       0.01584825      -0.00249857       0.00194776
C        2.43235760       0.46126104      -0.31599823      -0.00544566       0.00472647      -0.00103611
O        1.08779363      -0.79207676       1.10321906      -0.00509770      -0.00022060      -0.00446175
H       -2.47849250      -0.79182050       0.40412091       0.00355244      -0.00812605       0.00725138
H       -2.58313170      -0.35652334      -1.61456538       0.00048175      -0.00009930      -0.00444858
H       -1.20502166      -1.54643794      -1.36828308      -0.00496894      -0.00988761       0.00531245
H        0.05454342       1.36187122      -1.12174460      -0.00264892      -0.00115305      -0.00529554
H        0.13433770       1.54780248       0.65877616      -0.00107819      -0.00027126      -0.00109127
H        2.48799426       0.93583906      -1.29547281      -0.00003433       0.00040761      -0.00057165
H        3.18488867      -0.32220284      -0.27480689       0.00355224       0.00050032      -0.00648053
H        2.63973174       1.20163263       0.46435761       0.00088008      -0.00342160       0.00548577
H        0.89357657      -1.71048248       0.88325358       0.00589098       0.00053197       0.00660175
