22
Properties=species:S:1:pos:R:3:forces:R:3 /mnt/e/work/rmlp/database/CAMD/log/success_log/ts_295_1_A-E-16_opt.log=T energy=-33308.907725906203 pbc="F F F"
C       -1.70280308      -2.23036010       1.20691953      -0.00210904       0.00627750       0.00104260
C       -1.96720433      -1.33130510       0.02673997      -0.00841498       0.01510072      -0.00730455
O       -2.98894285      -0.68447588      -0.08089359       0.01547372      -0.01188868       0.00539602
C       -0.88476255      -1.28024989      -0.99186082       0.01379347      -0.01365662      -0.01040649
C       -0.56963675       0.89252022      -0.64639077      -0.00303960      -0.00072192      -0.00702477
C       -0.90638367       1.62189941       0.64307183      -0.00774181       0.00432569      -0.00341988
N       -0.95949321       3.06139334       0.44431281       0.00678390      -0.01274228       0.00740302
C        0.81991513       0.96080029      -1.11795949       0.00683999       0.00039440      -0.00881970
S        1.01803521      -0.47045213      -0.15736038      -0.00722522       0.01158381       0.00720501
Cl       2.34214580       0.67639282       1.41496650       0.00106698      -0.00433654       0.00326377
H       -2.59883078      -2.31389261       1.81626546       0.00055680      -0.00076930      -0.00142576
H       -1.39838345      -3.22096923       0.86058145      -0.00151850       0.00362548      -0.00097570
H       -0.88087141      -1.83264745       1.80609622       0.00275302      -0.00156898       0.00420344
H       -1.21847952      -0.96820192      -1.97223563      -0.00998321       0.00890014       0.00271160
H       -0.41268031      -2.25979761      -1.11114419      -0.00047201       0.00295882       0.00577436
H       -1.37496278       0.98342752      -1.37400429      -0.00380749      -0.00270495       0.01140282
H       -0.11831499       1.39581619       1.35813252      -0.00611643      -0.00060745      -0.00138065
H       -1.85547906       1.26608456       1.03626778      -0.00182196      -0.00215967      -0.00605217
H       -0.37252924       3.34158098      -0.33328747      -0.00352051       0.00189847      -0.01030478
H       -1.90378975       3.36043800       0.24101879       0.00605616      -0.00014228       0.00853199
H        1.42503160       1.77224171      -0.71838871      -0.00025117       0.00224835       0.00375652
H        0.99903999       0.74590689      -2.16832752       0.00269781      -0.00601348      -0.00357707
