25
Properties=species:S:1:pos:R:3:forces:R:3 /mnt/e/work/rmlp/database/CAMD/log/success_log/ts_25_1_NO2-A-7-d_opt.log=T energy=-33046.578424634317 pbc="F F F"
O       -2.41534014       0.91399924       1.47879459       0.00720751      -0.00360692       0.00028824
N       -1.84839165      -0.18124963       0.97827655      -0.01889165       0.00433636      -0.00119859
C       -1.55333800       0.03193425      -0.43891153       0.01805876       0.00244755      -0.00187111
O       -1.01100922      -1.06637792      -1.09788594      -0.00212100       0.00354883      -0.00197101
C       -0.17634510      -1.93738583      -0.48984451      -0.01103646      -0.01392102      -0.00085032
O        0.48017114      -2.72691533      -1.09495946       0.00382710       0.00653446       0.00239277
O       -0.23270253      -1.84786263       0.85126745       0.00125808       0.00202340      -0.00057924
S       -0.46637444       1.57717677      -0.64942848      -0.00190347      -0.00531560       0.00412858
O       -0.28908064       1.67854928      -2.11162995      -0.00255221      -0.00032616      -0.00028032
C        1.04156664       0.87671226       0.02169956      -0.00462294      -0.00060475       0.01696646
C        1.21605563       0.81846675       1.39657503      -0.00190345      -0.00307283      -0.01081625
C        2.43696489       0.39876029       1.89294787      -0.00589149       0.00407632      -0.00159895
C        3.45950255       0.03652172       1.02211352       0.00285230      -0.00083923      -0.00169981
C        3.26080827       0.08308257      -0.34903226      -0.00044762      -0.00038229      -0.00022513
C        2.04593642       0.52042726      -0.85966605       0.00557511       0.00076276      -0.00328916
O       -3.46159912      -0.85821825       0.78132659       0.02361512       0.01441479      -0.00250116
H       -2.44708911       0.35294573      -0.96839031      -0.00423815       0.00373648      -0.00456123
H        0.46657381      -2.42590876       1.18290820      -0.00011247      -0.00120547       0.00052238
H        0.39843284       1.06881648       2.05995652      -0.00498429      -0.00101607       0.00159755
H        2.59358545       0.35350125       2.96202835      -0.00012334       0.00003326      -0.00139302
H        4.41679527      -0.27650657       1.41548859      -0.00055170      -0.00106728       0.00030300
H        4.04968069      -0.22071757      -1.02211722       0.00074598       0.00299983       0.00043052
H        1.86379999       0.60209415      -1.92456834      -0.00050710      -0.00327829      -0.00085890
H       -3.44893768       0.25232870       1.26623581      -0.00366163      -0.01682270      -0.00084420
H       -3.50500594      -1.54172422       1.46358541       0.00040963       0.00654523       0.00790852
