17
Properties=species:S:1:pos:R:3:forces:R:3 /mnt/e/work/rmlp/database/CAMD/log/success_log/ts_211_2_R-B-3_opt.log=T energy=-9902.558030290118 pbc="F F F"
C        2.26328457      -0.86821190      -0.33228793       0.00131917      -0.00633144       0.00306189
C        1.48440449       0.29504296       0.19001996      -0.00828183       0.00561857      -0.02060273
N        1.38643719       1.46680774       0.22499503       0.01217986       0.00412297       0.01611090
C       -0.98231190       1.89388594       0.17497136       0.00009292      -0.00304532      -0.00211990
C       -1.46782599       0.71174031      -0.28147159       0.01455954       0.00194421      -0.00233096
C       -0.95089771      -0.53744172       0.14958775      -0.01250541       0.00548637       0.01030682
O       -1.21010046      -1.68318271      -0.54042365       0.01665521       0.00217521      -0.02112854
C        0.02838015      -0.63124115       1.12163499      -0.00106171      -0.00508416       0.01203239
H        2.84357526      -1.32466653       0.46970369       0.00443572       0.00129540      -0.00458935
H        2.93740198      -0.52501612      -1.11073268      -0.00681072      -0.00050967       0.00093547
H        1.58864011      -1.61882741      -0.74150965       0.00428545       0.00337840       0.00469924
H       -1.04086037       2.78599546      -0.43615426      -0.00072062      -0.00229722      -0.00242931
H       -0.60133368       2.03377039       1.17157098       0.00195608      -0.00152504       0.00057888
H       -2.16796615       0.70920038      -1.11198317      -0.00181415      -0.00136481      -0.00001825
H       -1.99239346      -1.58977000      -1.09405846      -0.01853853      -0.00781202       0.00811115
H        0.44667130      -1.61151292       1.31404766       0.00212446       0.00063223      -0.00074074
H       -0.05126531       0.03806729       1.96400997      -0.00787535       0.00331566      -0.00187683
