21
Properties=species:S:1:pos:R:3:forces:R:3 /mnt/e/work/rmlp/database/CAMD/log/success_log/ts_271_1_NO2-A-8-e_opt.log=T energy=-27319.903873126194 pbc="F F F"
C       -1.86772875      -1.68877220       0.65883125      -0.01386020       0.00507453      -0.00058751
S       -1.51341019      -0.11977312      -0.07878972      -0.00112626      -0.00248444       0.00651775
O       -2.09592844       0.88401241       0.76467420      -0.00381821      -0.00236952       0.00042450
O       -1.79869117      -0.17221415      -1.48371289       0.00320771       0.00306247      -0.00066423
C        0.29368500      -0.06368750       0.04792113       0.00882900       0.01430970      -0.02186671
N        0.85389016       1.04034000      -0.58719919       0.00809366      -0.00723381       0.01865226
O       -0.03597386       2.00413898      -0.63323906      -0.01259756      -0.00244212      -0.00438854
N        0.84334863      -1.33062762      -0.35582927       0.00217789      -0.01485685      -0.00412172
C        2.23536652      -1.33707857      -0.77993071      -0.01735842       0.00187671      -0.00688621
O        3.13189314      -0.59484848       0.00010470       0.01575959       0.00125861       0.00876266
O        1.57970559       1.37911588       1.33503947      -0.00258040      -0.00061941       0.01469254
H       -1.45235431      -1.70403822       1.66626166       0.00605732      -0.00063340      -0.00280900
H       -2.95263099      -1.75800246       0.69070006       0.00170048      -0.00114916       0.00256473
H       -1.44530698      -2.45760925       0.01659094       0.00681266       0.00099927       0.00272780
H        0.46011885       2.79716143      -0.87365399       0.00456905       0.00138030      -0.00365123
H        0.65037620      -2.07131082       0.30792767      -0.00054467       0.00029367      -0.00002948
H        2.24502299      -0.98653699      -1.81573525       0.00263521       0.00021729       0.00134033
H        2.57102151      -2.37668411      -0.77437242       0.00181849       0.00075057      -0.00071883
H        2.65941819       0.18606750       0.34817916      -0.00888538       0.00040102      -0.00410408
H        0.55597725       0.29042461       1.14952441      -0.00663567       0.00210541       0.00438011
H        1.84008066       2.08605269       1.94052787       0.00574550       0.00005949      -0.01023483
