24
Properties=species:S:1:pos:R:3:forces:R:3 /mnt/e/work/rmlp/database/CAMD/log/success_log/ts_203_1_NO2-A-8-e_opt.log=T energy=-29967.863707762943 pbc="F F F"
C        4.05231830      -0.04526113       0.07838308       0.00186151       0.00175965       0.00131607
O        2.95272946       0.45720340      -0.69443031      -0.00206807      -0.00307000      -0.00223058
C        1.83905016       0.66109463       0.01862310       0.00151777       0.00388181       0.00205922
O        1.79324892       0.66138928       1.21951496      -0.00032820      -0.00339410      -0.00168836
C        0.66365514       0.91334402      -0.90648742       0.00003131      -0.00367120       0.00676680
C       -0.64189977       0.49820436      -0.27575706       0.00290215       0.01456422       0.02961427
N       -1.73637519       1.12722091      -0.85022903      -0.00643840      -0.01372415      -0.03385979
O       -2.84543975       0.48853283      -0.52938252      -0.00245214       0.00676227       0.01099747
S       -0.77656887      -1.30523643      -0.01830196       0.00042565      -0.00889722      -0.00666007
C       -1.46066935      -1.24390798       1.60830540       0.00556849       0.00117166      -0.00056002
O       -1.70279301      -1.92929166      -0.91646673      -0.00332534      -0.00028056       0.00302958
O        0.58112785      -1.78857726       0.02729867       0.00336862       0.00263125      -0.00471759
O       -1.56652226       2.28441699       0.85325297       0.00605106       0.01647317       0.00640810
H        4.32703298       0.67640683       0.84388716       0.00083844      -0.00073305       0.00027153
H        4.86342494      -0.19004344      -0.62653506       0.00128435       0.00023757       0.00098246
H        3.77278027      -0.98750374       0.54951333      -0.00095221       0.00011325      -0.00092655
H        0.63390419       1.97989008      -1.14037465       0.00305201       0.00057155       0.00379824
H        0.83559711       0.36460086      -1.83255522      -0.00475694       0.00476961      -0.00141902
H       -3.55144659       1.05060439      -0.87389302       0.00328211      -0.00260687       0.00198710
H       -2.20459524      -0.44805410       1.63953060       0.00106609       0.00227776      -0.00077251
H       -1.89878334      -2.22144263       1.79646700      -0.00230718      -0.00054389       0.00032885
H       -0.63439243      -1.03408700       2.28903539       0.00059232      -0.00525802       0.00120676
H       -0.75385479       1.06675664       0.78360357      -0.00855166      -0.00708872      -0.00899958
H       -1.91524871       3.05499015       1.32289774      -0.00066212      -0.00594616      -0.00693244
