16
Properties=species:S:1:pos:R:3:forces:R:3 /mnt/e/work/rmlp/database/CAMD/log/success_log/ts_218_1_RR-B-1-b_opt.log=T energy=-14155.609728857638 pbc="F F F"
C        0.05043481       0.05277209       0.23588478       0.01533873       0.01562589      -0.01574844
C       -0.41239745       1.48038559       0.37364016      -0.01297816       0.00130635       0.00586367
F       -0.95045929       1.95327983      -0.82689656      -0.00071698      -0.00083438       0.00066954
C       -0.93163790      -1.05284295       0.49226585       0.00010502       0.00016642       0.00937772
C       -2.32587579      -0.82862173      -0.05060575       0.01092565       0.01126065      -0.01779234
O       -0.63423213      -2.04499605       1.10875104      -0.01433301      -0.00640464       0.00612402
C        1.43718270      -0.22447589       0.40329971      -0.01781547      -0.00800267       0.02130497
O        2.39598276      -0.29559237       1.04283198       0.00554460       0.00123394      -0.01433074
O        1.65420837      -0.49540170      -1.35861313      -0.01495904       0.00808734      -0.00372314
H        0.52007527      -0.16906809      -1.07018379       0.02319962      -0.00991815       0.00352442
H        0.41172167       2.14547539       0.63413922       0.00402796      -0.00212927      -0.00401819
H       -1.19995515       1.58025881       1.12849802      -0.00083229       0.00160274      -0.00204733
H       -2.29856602      -0.35384718      -1.03273150      -0.00314735      -0.00346007       0.00124750
H       -2.88806471      -0.16755220       0.61208436       0.00318611      -0.00774330       0.01388739
H       -2.84632094      -1.78086494      -0.11520220      -0.00101888      -0.00255537      -0.00254078
H        2.10481380       0.29452139      -1.68463217       0.00347315       0.00176415      -0.00179807
