43
Properties=species:S:1:pos:R:3:forces:R:3 /mnt/e/work/rmlp/database/CAMD/log/success_log/ts_212_1_RR-A-12_opt.log=T energy=-40174.495478807839 pbc="F F F"
C       -6.21811666      -1.29990297      -0.85870131       0.00391585       0.00383177      -0.00676781
O       -5.48782047      -1.45150818       0.34430194      -0.00155067      -0.00977777       0.00262019
C       -4.14118152      -1.43456665       0.20996726       0.00769413       0.00429082       0.00273183
C       -3.37873195      -1.54346573       1.37671237      -0.00637166       0.00931146      -0.00488011
C       -2.00846986      -1.54963148       1.30691963       0.01119885      -0.00043322      -0.00466181
C       -1.35960017      -1.37309895       0.07713577       0.00158477       0.00198564      -0.00209956
C        0.74177675      -1.24816084       0.00349217      -0.00343913      -0.00042999       0.00401287
O       -0.03907123      -2.29095220      -0.07619969      -0.00135219       0.00616613       0.00240354
N       -0.06038883      -0.24202708       0.13507006      -0.01409519      -0.01560029      -0.01721537
C        2.18906388      -1.41220028      -0.02767690      -0.00033090       0.00003323      -0.00105387
C        3.06650501      -0.39784230       0.33119670      -0.00528206       0.00022969      -0.00616908
C        4.43086648      -0.63311851       0.32272098      -0.00125505      -0.01213893      -0.00162383
C        4.94247885      -1.87453567      -0.04035626       0.00352401      -0.00135726       0.00491693
C        6.42922764      -2.12010828      -0.06927646      -0.00146878      -0.00041011      -0.00606580
C        4.04958239      -2.88909621      -0.38650777      -0.00564362       0.00161976      -0.00414759
C        2.68705137      -2.66246180      -0.39087601       0.00414273       0.00042393       0.00166973
C       -0.02045717       1.15254468       0.10356111      -0.00958458       0.01166902       0.01184176
C        1.01994281       1.83307323      -0.51867643       0.00418893      -0.01394627       0.00129450
C        1.04391323       3.21595848      -0.51630713      -0.00652154       0.00399250       0.00303118
C        0.01654673       3.91525227       0.09796233       0.00752433       0.00085676       0.00008250
Cl       0.04472914       5.64992149       0.10991336       0.00127181       0.00005120      -0.00178272
C       -1.03209178       3.24272292       0.70644989      -0.00700200      -0.00845324       0.00058118
C       -1.05241655       1.86184904       0.70589785       0.01431750       0.01259247      -0.00823596
C       -2.12329569      -1.29839436      -1.08977882       0.00927892      -0.00044636       0.01153797
C       -3.49865887      -1.33099523      -1.02477695      -0.00663310       0.00021929       0.00590569
H       -6.01712295      -2.12673475      -1.54763115       0.00088366       0.00127181       0.00365391
H       -5.97535773      -0.35152113      -1.34915607       0.00048902      -0.00060251       0.00008819
H       -7.26395466      -1.30602956      -0.58015248      -0.00766608       0.00118827       0.00306350
H       -3.87247638      -1.63987679       2.33526552      -0.00183532      -0.00316347      -0.00151861
H       -1.40069358      -1.66460755       2.19478880       0.00929946       0.00240197      -0.00703007
H        2.67457776       0.56958639       0.61372430      -0.00510058       0.00162551       0.01205727
H        5.10923822       0.16575656       0.59671138      -0.00117049       0.00494897      -0.00260162
H        6.66037102      -3.15813583       0.17011990       0.00067890       0.00209299       0.00078569
H        6.94613937      -1.48169936       0.64667542       0.00024277       0.00097631       0.00043067
H        6.84532952      -1.91067330      -1.05814312       0.00139637      -0.00175538       0.00185594
H        4.43296147      -3.86803731      -0.65214547       0.00018795       0.00176239       0.00126994
H        1.98216487      -3.43397344      -0.66270836       0.00048172      -0.00122347       0.00480857
H        1.80950588       1.27236853      -0.99892661       0.00052503       0.00589758      -0.00350815
H        1.86559945       3.74653227      -0.97951940       0.00138655       0.00001898       0.00123720
H       -1.82859944       3.80253477       1.17939984      -0.00187269      -0.00064984       0.00013803
H       -1.87619864       1.34026556       1.17148752      -0.00289130      -0.00922447       0.00032756
H       -1.61389637      -1.20005488      -2.03844719       0.00142455      -0.00076701       0.00058514
H       -4.07176134      -1.27391555      -1.93819051       0.00542915       0.00092103      -0.00356963
