14
Properties=species:S:1:pos:R:3:forces:R:3 /mnt/e/work/rmlp/database/CAMD/log/success_log/ts_22_1_A-E-4_opt.log=T energy=-18165.580987610982 pbc="F F F"
C       -0.27897173       1.22993464       0.50653305       0.02979648       0.01313382      -0.01084316
C        0.40202926       1.50302532      -0.69471691       0.00864434      -0.00716114       0.03421950
S        1.99402245       0.01010920      -0.02476846      -0.00965406      -0.00711656      -0.00187796
C       -1.57875728       0.48500768       0.50215492      -0.00736898      -0.01382589      -0.01094882
O       -1.56101266      -0.59809217      -0.40578180      -0.01325220      -0.00295389       0.01575512
O       -0.75494961      -1.63169639       0.17972879       0.00718600       0.01008430      -0.00899243
H        0.75196319       0.31082479       0.80485697       0.00793161       0.01291144      -0.00458990
H       -0.13698206       1.92462746       1.32342487       0.01691120      -0.01120928       0.00369334
H        1.01712441       2.38694379      -0.78189093      -0.01132739       0.00586441      -0.00248620
H        0.04134787       1.08056229      -1.62289417      -0.01248071      -0.01664507       0.00912138
H        1.97196368      -1.30686816       0.35731000      -0.00521590       0.01809067      -0.00095300
H       -2.39704945       1.12197498       0.15599288       0.00009287       0.00458847      -0.01460634
H       -1.80800360       0.12403381       1.50783511      -0.01963267       0.00839001       0.00380373
H       -0.13302446      -1.80927724      -0.54401431       0.00836939      -0.01415111      -0.01129523
