15
Properties=species:S:1:pos:R:3:forces:R:3 /mnt/e/work/rmlp/database/CAMD/log/success_log/ts_238_1_RR-B-6-b_opt.log=T energy=-11893.174561311153 pbc="F F F"
N        1.54713718      -1.17275407       0.48264486       0.01764834       0.02490872      -0.00003967
C        1.19124857      -0.13306922      -0.21206014      -0.01981705      -0.00256748      -0.00513786
O        2.16528414       0.16715295      -0.99950803      -0.00349152      -0.00610218       0.00118721
C       -0.07188922       0.68786234      -0.16313727       0.00410339      -0.00072552       0.01467919
C       -0.01334899       1.67129031       1.01806996      -0.01180560       0.00126350      -0.00738144
C       -1.28119316      -0.21886115      -0.05855754      -0.00412858       0.00499189       0.00901639
O       -1.48649887      -0.97816709       0.85372734       0.00312364       0.00123799      -0.01125026
O       -2.12409243      -0.07789984      -1.10112893       0.01126552       0.00729954      -0.00055817
H        0.94023854      -1.69543490       1.09107677      -0.01272802      -0.00810534      -0.00374284
H        2.56102569      -0.89757317      -0.31633236       0.00964335      -0.00771660       0.00089172
H       -0.12812797       1.22549053      -1.10400013       0.00888103       0.00036567      -0.00691181
H       -0.06835577       1.14714034       1.97097972       0.00283957      -0.00107477      -0.00129819
H       -0.84305880       2.37732732       0.95837353       0.00257052      -0.00261880       0.00286302
H        0.92380441       2.22586618       0.96909338      -0.00087693      -0.00203373       0.00113919
H       -2.86105333      -0.69087053      -0.96208116      -0.00722754      -0.00912350       0.00654322
