44
Properties=species:S:1:pos:R:3:forces:R:3 /mnt/e/work/rmlp/database/CAMD/log/success_log/ts_245_1_A-I-5_opt.log=T energy=-29829.773188277333 pbc="F F F"
N        0.71686504      -0.21168989       0.49435443       0.00901955       0.00401933       0.00255230
C       -0.08918550       0.00465685      -0.52684794       0.00153840      -0.01185927      -0.00455141
O       -0.02409749       0.15918460      -1.72237483      -0.00435810       0.00097534       0.01556575
N       -1.40540242       0.01264099       0.28963817      -0.01275265       0.01252338      -0.02236676
C       -2.30441048      -1.08725306       0.02585501       0.00524685      -0.00816293       0.00147610
C       -3.13709555      -1.50815184       1.05799985       0.00956202      -0.02023064       0.01394228
C       -3.92380774      -2.62906170       0.87488368      -0.00346124      -0.00393089      -0.00271569
C       -3.90534131      -3.31271444      -0.33753631       0.00197551       0.00104895       0.00216549
C       -3.10192512      -2.85442572      -1.36851449       0.00513637       0.00138032      -0.00785027
C       -2.30593521      -1.72878704      -1.20024475      -0.02981436       0.02049670      -0.00297621
C       -2.02007641       1.31618254       0.37590135       0.01124139      -0.00565565      -0.01600008
C       -2.25108025       1.90155834       1.61100399      -0.00680761       0.00974433       0.00214531
C       -2.85089466       3.15242573       1.65824332       0.00437275      -0.00880093       0.00726575
C       -3.19150312       3.81458228       0.48748871       0.00060090       0.00931948      -0.00708823
C       -2.93252658       3.22099648      -0.74236899      -0.00044110      -0.00572419       0.00431920
C       -2.34633661       1.96937345      -0.80054223      -0.00268233       0.00551323      -0.00338011
C        2.12273382      -0.26328456       0.41404101      -0.00226088      -0.00782931       0.00654687
C        2.74753953      -1.21558975       1.21435723       0.00237805       0.00071147      -0.00342208
C        4.10663480      -1.36444463       1.10856197       0.00142318      -0.00126690       0.00112253
F        4.70675797      -2.29172142       1.86622870      -0.00047573       0.00135171      -0.00159371
C        4.87839586      -0.60293706       0.25425661       0.00127452       0.00787460       0.00820226
C        4.25838453       0.37244306      -0.51255977       0.00211009       0.00322449      -0.00218469
C        5.09240759       1.18759282      -1.46771218      -0.00061017       0.00000358      -0.00125813
C        2.87913957       0.60191229      -0.38920656      -0.00503989      -0.00057137      -0.00939023
C        2.24352341       1.77054715      -1.08823590       0.01675987      -0.00676852      -0.01022467
H       -0.47747783      -0.19736429       1.11753433      -0.00465244       0.00377794       0.01602563
H       -3.17006869      -0.95561302       1.98839421       0.00239717       0.00644967      -0.00177884
H       -4.55490942      -2.97511932       1.68259280       0.00272131      -0.00269279       0.00055519
H       -4.51913100      -4.19279856      -0.47495497       0.00013879      -0.00064567      -0.00073434
H       -3.07994770      -3.37608196      -2.31629429      -0.00423826       0.00065011       0.00271267
H       -1.70021873      -1.34470563      -2.00752656       0.00784405      -0.00848356      -0.00072798
H       -1.95485993       1.39867967       2.52366114      -0.00385708       0.00045922       0.00251576
H       -3.04921397       3.61362769       2.61671979       0.00091369       0.00028221      -0.00119770
H       -3.65428839       4.79142020       0.53316598      -0.00315547      -0.00194857       0.00106582
H       -3.18056403       3.73567229      -1.66087125      -0.00069109       0.00320107      -0.00128150
H       -2.12122223       1.48209298      -1.73966616      -0.00524223      -0.00133580      -0.00065497
H        2.17159607      -1.83364054       1.89151037       0.00068909      -0.00045547       0.00124073
H        5.94562381      -0.76970287       0.19359107      -0.00054288      -0.00025800       0.00009133
H        5.99553223       0.64792234      -1.74808352      -0.00379924      -0.00360765      -0.00576401
H        4.53835608       1.42169623      -2.37689326      -0.00254209       0.00572159       0.00354293
H        5.40716775       2.13449920      -1.01838055       0.00676826      -0.00397182       0.00292812
H        1.79326330       1.47122397      -2.03424761       0.00371246       0.00256877       0.00240099
H        1.43034409       2.19553206      -0.49443170       0.00109902       0.00488283       0.00669947
H        2.97794495       2.55215408      -1.26828983      -0.00149789      -0.00198049       0.00205883
