14
Properties=species:S:1:pos:R:3:forces:R:3 /mnt/e/work/rmlp/database/CAMD/log/success_log/ts_288_1_E-2-b_opt.log=T energy=-12545.451944636003 pbc="F F F"
C       -0.27600337       1.67344703       0.89468968      -0.00104058      -0.00035167      -0.00142086
C       -0.14721732       0.71250668      -0.29115663      -0.00624511       0.00525057       0.00461787
C        1.23070117       0.15540085      -0.42888969       0.00854516      -0.01230770       0.00396371
N        2.22011094       0.09938077      -1.13150914       0.00721288      -0.00131589       0.00530076
C       -1.06394424      -0.46230106      -0.11840948      -0.00149369      -0.00893474      -0.00269040
O       -0.77864029      -1.55882088       0.24094489      -0.00768638       0.00141156      -0.00250849
F       -2.33322356      -0.17810039      -0.45712561       0.00245783      -0.00185614       0.00037306
O        1.61687419      -0.66922059       0.87365323       0.00559407       0.00199318      -0.01185250
H       -0.09078851       1.15551722       1.83354532       0.00127934      -0.00027704      -0.00003859
H        0.43518637       2.48888690       0.78171954       0.00299238      -0.00205675       0.00312389
H       -1.28444127       2.08333379       0.90911057       0.00248075       0.00569937      -0.00082291
H       -0.41145471       1.21517603      -1.21921174      -0.00534946      -0.00198483       0.00057724
H        1.00949263      -1.43708323       0.82623415       0.00422421       0.00801110      -0.00056154
H        2.47253798      -0.66867312       0.04270491      -0.01297134       0.00671887       0.00193870
