18
Properties=species:S:1:pos:R:3:forces:R:3 /mnt/e/work/rmlp/database/CAMD/log/success_log/ts_280_1_A-H-1_opt.log=T energy=-11382.791295861982 pbc="F F F"
C        2.37568928      -1.53605909       0.34801064      -0.00619626      -0.01766372      -0.00257361
O        3.19908014      -2.05589687       0.95740641      -0.00178277       0.01045299       0.00074148
N        0.51831287      -0.05427144       0.46277835      -0.02177735      -0.02191474       0.00861081
C       -0.56218784       0.67171656      -0.10451412       0.00139156       0.01478374      -0.00247558
C       -0.12287481       1.71598340      -1.12912241      -0.00149152       0.00161707       0.00076044
N       -1.25548213       1.38255245       0.96836032       0.00172400      -0.00567818       0.00255722
O       -1.42993699      -0.21670769      -0.81148396       0.00505394       0.00291169       0.00461870
C       -1.82199878      -1.41004711      -0.15999230       0.00515863      -0.00481027      -0.00107726
H        1.33295497      -0.87841231       0.09970308       0.01612359       0.01010936      -0.00416601
H        0.85031430       0.35600803       1.32364523       0.00110298       0.00549088      -0.00384700
H        0.42222361       1.25057821      -1.94603677       0.00313628       0.00277713      -0.00053161
H       -1.00892692       2.20625788      -1.52938355       0.00112378      -0.00292501      -0.00167151
H        0.49692708       2.46937190      -0.64676318      -0.00033727      -0.00048132      -0.00375927
H       -1.45753247       0.75079967       1.73371222      -0.00077727       0.00018290      -0.00054257
H       -2.13505696       1.73300486       0.60838584      -0.00028725       0.00140309       0.00071941
H       -2.20779231      -2.06227313      -0.94209564      -0.00062896       0.00185899       0.00186864
H       -0.99344720      -1.91496032       0.34109509       0.00035596       0.00452209      -0.00007161
H       -2.62633583      -1.23909500       0.56152475      -0.00189275      -0.00263678       0.00083953
