14
Properties=species:S:1:pos:R:3:forces:R:3 /mnt/e/work/rmlp/database/CAMD/log/success_log/ts_279_1_RR-B-6-b_opt.log=T energy=-22351.576952335537 pbc="F F F"
N        1.02606787      -1.77574796      -0.27050266      -0.00061202       0.02419406      -0.00860631
C        1.33651657      -0.57722190       0.12845569      -0.01151931      -0.02508880       0.00608623
O        2.60134161      -0.42750658      -0.03770634       0.00631094       0.00046681      -0.00233382
C        0.46299303       0.50398973       0.70640248       0.02169388      -0.01669991      -0.00619218
C        1.06934045       1.88321233       0.47966149      -0.00872952      -0.00182033      -0.00502440
C       -0.90607858       0.47073930       0.06231675       0.00256228       0.00759065       0.00037146
O       -1.24480638       1.09293236      -0.87973538       0.00510949       0.00169957       0.00355113
Cl      -2.08068619      -0.58859056       0.90812200      -0.01242030      -0.01117232       0.00419813
H        0.09213101      -2.15305914      -0.30096843       0.00797737      -0.00616974       0.00524033
H        2.32850407      -1.64136364      -0.45932154      -0.00119393       0.00235981      -0.00006750
H        0.32775005       0.29100517       1.77074961      -0.01601741       0.01668790      -0.00057466
H        1.33138548       2.03369511      -0.56618250      -0.00300969       0.00290652       0.00125530
H        1.96690173       1.99894926       1.08100264       0.00243294      -0.00058877      -0.00021289
H        0.34468928       2.64749653       0.75483619       0.00741580       0.00563471       0.00230923
