22
Properties=species:S:1:pos:R:3:forces:R:3 /mnt/e/work/rmlp/database/CAMD/log/success_log/ts_229_1_A-E-24_opt.log=T energy=-90829.382374792476 pbc="F F F"
C       -0.67185567      -2.59737539      -0.00362527       0.02482057      -0.00108600       0.00989476
N       -1.75177719      -1.62384399      -0.16398806      -0.01328754      -0.00066447      -0.01053125
C       -3.01824604      -1.99165776       0.45559611      -0.01449847      -0.00974596       0.00803322
C       -1.58467076      -0.47004301      -0.73220394       0.02161586      -0.02777827      -0.00173543
C       -1.79773961       1.30939832       0.93450528      -0.00854343       0.03333187      -0.00502348
C       -1.59325185       2.57178383       0.24705670       0.01490761       0.01503631      -0.01695740
O       -1.72371792       2.72906827      -0.95519413      -0.00647657      -0.01017602       0.02485728
C       -0.26395739       0.10396913      -1.09406095      -0.00518215       0.00018328      -0.00612330
S        0.55409354       0.80764252       0.35400952      -0.01785436       0.00266480       0.00152159
Br       2.52587998      -0.28093585       0.24510336       0.01737416      -0.00729215      -0.00290881
H       -0.53483598      -3.19001011      -0.91142557      -0.00363915      -0.00345908      -0.00195853
H        0.25604405      -2.08148266       0.23529666      -0.00792807       0.00149860      -0.00324371
H       -0.92403252      -3.25786624       0.82482130      -0.00231265       0.00051156      -0.00042505
H       -3.83308411      -1.45744429      -0.02865561      -0.00042367       0.00404179      -0.00411718
H       -3.16427321      -3.06625314       0.35217910       0.00334142      -0.00030451      -0.00094600
H       -2.99839477      -1.72728730       1.51495308       0.00344352       0.00271531       0.00239205
H       -2.48754542       0.03324337      -1.06054428      -0.01248825       0.03100082      -0.00006637
H       -2.81976680       0.94280445       0.87877188       0.00236315      -0.02200809      -0.00085601
H       -1.42583372       1.25378502       1.95407095       0.00502539      -0.00627677      -0.00381148
H       -1.26557409       3.43302661       0.87280197      -0.00471148      -0.00513363      -0.00353834
H       -0.41563112       0.92353187      -1.79839750      -0.00127542       0.00004208       0.00461449
H        0.37884059      -0.65110360      -1.54937061       0.00572971       0.00289863       0.01092854
