20
Properties=species:S:1:pos:R:3:forces:R:3 /mnt/e/work/rmlp/database/CAMD/log/success_log/ts_239_1_S-A-8_opt.log=T energy=-36533.323247001965 pbc="F F F"
C        3.92444675       0.09260956      -0.93132435      -0.00629687      -0.00262052      -0.00451559
C        2.75071944       0.99087643      -0.64783417      -0.02665423      -0.01456511      -0.00057626
O        1.51741917       0.22206909      -0.79255278       0.01992542      -0.02456284       0.01128209
C        0.57243594       0.23869879       0.55316353      -0.00414276       0.00873917       0.00299358
O        0.98500686       0.86562071       1.46612794       0.00002256      -0.00396180      -0.00068092
O       -0.62894741       0.22169298      -0.00712076      -0.00541556       0.00145167       0.00513615
C       -1.69932452       0.25001018       0.96209417       0.01245818      -0.00629383      -0.00779080
C       -2.87848972       0.93534607       0.32690952       0.00042057       0.00651020       0.00104147
Cl      -3.56887653      -0.08713356      -0.95901898      -0.00440001      -0.00058815      -0.00072849
Cl       1.03979763      -1.91179450       0.72935596       0.00081776       0.00060785      -0.00446728
H        3.93142138      -0.76699276      -0.26115324       0.00262039      -0.00176060      -0.00060047
H        4.84580324       0.65773004      -0.80408186      -0.00026685      -0.00032562       0.00652057
H        3.87680634      -0.27013266      -1.95845549       0.00533592       0.00493593      -0.00008965
H        2.65137899       1.79570456      -1.37193383       0.00242775      -0.00061765      -0.00299038
H        2.74777205       1.39904100       0.36326755       0.01061240       0.00472762      -0.00413570
H       -1.93380822      -0.77717426       1.23605919      -0.00018627       0.00087833       0.00297321
H       -1.35217795       0.79375477       1.84195849      -0.00763103       0.00167498       0.00248140
H       -2.57139190       1.87018177      -0.13431678       0.00248085      -0.00400555      -0.00430313
H       -3.65910226       1.12382079       1.06152804       0.00218184      -0.00213824       0.00191657
H        1.69947072      -0.76414901      -0.72246216      -0.00431019       0.03191346      -0.00346655
