26
Properties=species:S:1:pos:R:3:forces:R:3 /mnt/e/work/rmlp/database/CAMD/log/success_log/ts_225_2_S-A-9_opt.log=T energy=-38669.547368679785 pbc="F F F"
C       -3.02992379       0.97562141      -1.08475105      -0.00506377      -0.00870776       0.00320733
O       -2.60646032      -0.29783400      -0.56323384       0.01549143      -0.00013947      -0.00006866
C       -2.47601875      -0.28622550       0.90895257      -0.00792503       0.00170279      -0.00002623
O       -1.88124456       0.66187616       1.40355714      -0.00262332      -0.00046134       0.00033808
C       -3.04958940      -1.38498547       1.49446551      -0.00210583       0.00342560      -0.00049551
C       -0.85482317      -1.04488934      -1.36311454      -0.00504887       0.00708613       0.00681131
Cl       0.07414243      -2.31597890      -0.66414111       0.00753823       0.00403194      -0.02437919
C        0.37741709       2.60390762       0.87541018      -0.00264379       0.00668816       0.00630951
O        0.74216036       1.57400773      -0.03074442       0.00346226       0.00036007      -0.00660199
C        2.01656781       1.05842940       0.28868411      -0.01062369       0.00600618       0.01964796
C        2.71882173       0.66395416      -0.99369900      -0.02454257       0.01610112      -0.00467885
Cl       4.39604379       0.19849604      -0.60541174       0.00449127       0.00284722       0.00153001
H       -2.22992900       1.70636784      -0.98236443       0.00293338      -0.00277308      -0.01057657
H       -3.27185969       0.80408326      -2.12923513      -0.00765999       0.00182964       0.00247282
H       -3.91513313       1.31218847      -0.54033785       0.00441122       0.00374956       0.00316716
H       -3.04641636      -1.43605784       2.56825489       0.00247538      -0.00175753       0.00043321
H       -3.51172311      -2.14415445       0.87982516      -0.00025573       0.00063515       0.00024021
H       -0.48178940      -0.03230282      -1.34671879       0.00297540      -0.00227401       0.00564229
H       -1.51074403      -1.41668436      -2.13589704      -0.00085694       0.00411745      -0.00015572
H       -0.59917583       2.98254603       0.59012680      -0.00106019      -0.00159516      -0.00100487
H        0.33299735       2.23234602       1.90494076       0.00107951      -0.00283086       0.00063628
H        1.10537722       3.41537117       0.82874051       0.00093797      -0.00163347      -0.00135808
H        2.62772162       1.79639623       0.82312822       0.01660007      -0.00848806      -0.01230723
H        1.91595911       0.18387452       0.93936987      -0.00912495       0.00440675       0.00280869
H        2.24542321      -0.18984293      -1.47132068       0.02543399      -0.02456373       0.01796207
H        2.75452880       1.49824954      -1.69070612      -0.00829519      -0.00776309      -0.00955386
