23
Properties=species:S:1:pos:R:3:forces:R:3 /mnt/e/work/rmlp/database/CAMD/log/success_log/ts_250_1_S-A-11_opt.log=T energy=-20607.742277311594 pbc="F F F"
C       -3.43852919       0.01704219      -0.36360832       0.00723016      -0.00770789       0.00559938
N       -2.13296738      -0.37256185       0.13651941      -0.01474100      -0.01001832      -0.00449818
C       -1.67367320      -1.72364817      -0.13434005      -0.00277054       0.00327706       0.02527188
C       -1.39967341       0.51998381       0.82345492      -0.00101224       0.00807047      -0.00723398
O       -1.77795093       1.61206422       1.20394982       0.00341117       0.00028729       0.00140905
O       -0.11718628       0.11486781       1.07475323       0.00172973       0.00337744      -0.00946568
C        0.87876626       0.00737288      -0.36539289       0.00963300       0.00178599       0.01107359
O        0.43234790      -0.07850462      -1.45882181      -0.00380769      -0.00311124      -0.00923955
N        1.77340143      -1.16054789       0.16513789       0.00010729      -0.00556445      -0.01204041
O        1.34872100      -2.25959779      -0.09633498      -0.00466160       0.00580788       0.01131096
O        2.78054846      -0.89117408       0.76436076      -0.00144827      -0.00139501      -0.00050977
O        1.48889989       1.25202781       0.13957382       0.00129199       0.01200674       0.01575750
C        1.40900432       2.43327650      -0.69502153      -0.00832713      -0.00201178       0.00821197
H       -3.43713381       0.04773045      -1.45428105      -0.00034877       0.00852095       0.00001004
H       -4.18281573      -0.71225221      -0.04058059       0.00023524      -0.00233331      -0.00717431
H       -3.70075449       0.99482043       0.02758891      -0.00124375       0.00045428       0.00202116
H       -0.96294042      -2.04490964       0.61789092       0.00402817      -0.00213262      -0.00281513
H       -1.19004769      -1.78699217      -1.10871550       0.00007617      -0.00210536      -0.00450039
H       -2.53013903      -2.39279268      -0.11975469      -0.00037846      -0.00272809      -0.00839011
H        0.72947186       1.23094202       0.91023502       0.00995350      -0.00187585      -0.01300770
H        2.21624397       3.07421516      -0.35856643       0.00226924      -0.00335656      -0.00189458
H        1.54555532       2.14164037      -1.73224152      -0.00541662      -0.00123727      -0.00151211
H        0.44759112       2.91984747      -0.53740534       0.00419068       0.00198877       0.00161627
