19
Properties=species:S:1:pos:R:3:forces:R:3 /mnt/e/work/rmlp/database/CAMD/log/success_log/ts_291_2_A-E-2_opt.log=T energy=-9366.992132151423 pbc="F F F"
C       -1.35790981       1.32501809      -0.72945734       0.00936282      -0.01151621      -0.02394629
C       -1.24120221       0.64262099       0.50105045       0.02291787      -0.00123057       0.02138716
C       -1.38999625      -0.84110875       0.64438496      -0.01378697       0.01799947      -0.00656778
N       -0.87314876      -1.63911283      -0.46486666       0.03004858      -0.01841205       0.00331461
O        0.66864256       1.07520206       0.48220559      -0.00214422       0.00125182       0.00491634
C        1.96447664       0.53565233       0.37448135       0.01149067      -0.00854075       0.00078729
N        2.12184835      -0.76744754      -0.21527707       0.00277662       0.01827323      -0.00071120
H       -0.07282878       1.48433697      -0.57736184      -0.00005150       0.00198022       0.00029352
H       -1.79155519       2.31703173      -0.70323051       0.00164806       0.00131840       0.01126855
H       -1.53584837       0.73856953      -1.62397037      -0.01438102       0.00191052      -0.00163759
H       -1.34015195       1.20926859       1.41549057      -0.00759853       0.00191242      -0.00331584
H       -0.90978636      -1.16235532       1.57123220      -0.00138876      -0.00559683      -0.00244472
H       -2.46387108      -1.03760855       0.77202512      -0.00054651       0.00296496      -0.00346278
H       -1.62872945      -1.93528957      -1.06743515      -0.00856584       0.00247079       0.00253612
H       -0.22047202      -1.08185374      -1.01423454      -0.00705181       0.00301671      -0.00099230
H        2.37841456       0.49100695       1.38573241      -0.00530582      -0.00157417      -0.00026786
H        2.57024614       1.25395118      -0.19368931      -0.00724335       0.00211635      -0.00252730
H        2.28333609      -0.75472141      -1.21150794      -0.00185061      -0.00358637       0.00195187
H        1.38706588      -1.42033070       0.03396807      -0.00832957      -0.00475791      -0.00058107
