8
Properties=species:S:1:pos:R:3:forces:R:3 /mnt/e/work/rmlp/database/CAMD/log/success_log/ts_219_1_A-I-4_opt.log=T energy=-20314.385639598622 pbc="F F F"
N       -0.42688164       1.75767551      -0.00390883      -0.00036460      -0.00010520       0.02001559
C       -0.48885733       0.46793283       0.00266574       0.01105773      -0.00634557      -0.01619843
S       -1.54825196      -0.78007852       0.00802369      -0.00313526       0.00577003      -0.00192828
N        1.00261059       0.24962725       0.00182510       0.00239617       0.00442493       0.00548578
F        1.35021899      -0.45342299       1.12032249       0.00198095      -0.00143705       0.00028013
F        1.34727838      -0.43815355      -1.12720522      -0.00433485       0.00178257       0.01140406
H       -1.30950654       2.25875815      -0.00820320      -0.00226775      -0.00021082      -0.00098365
H        0.98387950       1.47874132       0.00513024      -0.00533238      -0.00387919      -0.01807519
