14
Properties=species:S:1:pos:R:3:forces:R:3 /mnt/e/work/rmlp/database/CAMD/log/success_log/ts_349_1_S-B-3-a_opt.log=T energy=-9843.557597564981 pbc="F F F"
O        2.31302128      -0.76291580      -0.66404865      -0.00005981       0.00386494      -0.00476378
C        1.49824883      -0.55736041       0.29866081       0.00944844      -0.00742960       0.01199818
C        1.16614221       0.80854779       0.37322663       0.00648131      -0.00420809      -0.01749778
C       -0.28622149       1.21789697       0.45183521      -0.00849618      -0.01070794       0.00787699
N       -1.10086150       0.68091538      -0.62626986       0.01135959       0.00133485       0.00229049
C       -1.82817682      -0.45309517      -0.48136501       0.00320089       0.00225151      -0.00077069
O       -1.94297964      -1.07442713       0.55030560      -0.00308056       0.00227726      -0.00032425
H        2.04628515       0.46843998      -0.79403985       0.00007993       0.00367638      -0.00186300
H        1.13346058      -1.38443684       0.90715335      -0.00432177       0.00235816      -0.00044908
H        1.87927285       1.45396193       0.88497239      -0.00644952      -0.00516605       0.00604230
H       -0.37159573       2.30744689       0.43785224       0.00094883       0.00197248      -0.00319228
H       -0.74171996       0.85862137       1.38185876      -0.00037237       0.01085243       0.00284773
H       -1.05479900       1.11512374      -1.53165344      -0.01065448       0.00331370      -0.00010303
H       -2.33855677      -0.76608870      -1.40756819       0.00191554      -0.00439008      -0.00209150
