19
Properties=species:S:1:pos:R:3:forces:R:3 /mnt/e/work/rmlp/database/CAMD/log/success_log/ts_396_1_NO2-A-6-d_opt.log=T energy=-94829.636677312126 pbc="F F F"
C       -2.64058528      -0.13022098      -0.86653973      -0.00367701       0.00964552      -0.00874174
C       -1.47622813       0.72296604      -1.27439298       0.00282907      -0.02297138       0.00099754
O       -0.94374438       0.64710642      -2.35294947      -0.00025246       0.00128861      -0.00883973
C       -1.03082384       1.80271178      -0.28965639      -0.00672519       0.01986778       0.01402140
S       -0.41511129       1.28582118       1.33632558      -0.00405973       0.00174480      -0.00335729
O       -1.50676332       0.52352024       1.98222633       0.00657292       0.00175299       0.00384468
C        0.90780154       0.11408083       0.74587579      -0.00077456      -0.03032052      -0.01481956
Br       0.37377612      -1.74234381       0.76948605       0.00939950       0.00363886       0.00511460
N        1.32233416       0.53552157      -0.59759883       0.00700703       0.00718856       0.00090912
O        1.88005821       1.76247342      -0.48343500       0.00384557      -0.00277150       0.01067418
O        2.80703811      -0.16979522      -0.72969044       0.00739002       0.01030284       0.01100588
H       -2.47865144      -0.59000667       0.10707752       0.01174640      -0.00287638       0.00147156
H       -3.53198129       0.49835435      -0.78349543      -0.00229605      -0.00168967       0.00731608
H       -2.79570484      -0.89244513      -1.62348573      -0.00050053       0.00327521      -0.00556195
H       -0.27404465       2.42692313      -0.75892541       0.00016704      -0.00160614      -0.00406773
H       -1.90260357       2.39009313      -0.00390182       0.00401996       0.00421995      -0.00437347
H        1.72732099       0.22161704       1.45853350      -0.00288330       0.01788528      -0.00046811
H        2.94709370       0.97020646      -0.62656903      -0.02484548      -0.02819967      -0.00225855
H        2.84863920      -0.44185379      -1.65971453      -0.00696364       0.00962490      -0.00286683
