19
Properties=species:S:1:pos:R:3:forces:R:3 /mnt/e/work/rmlp/database/CAMD/log/success_log/ts_335_1_A-E-14_opt.log=T energy=-104853.856629839822 pbc="F F F"
O        1.83450453      -2.37751939      -1.40079203       0.03043848       0.00494051      -0.01058105
C        2.02399254      -1.30118775      -0.90473102      -0.00799075      -0.01233852       0.00699615
C        2.54675495      -1.12163759       0.49775509       0.01208872       0.01054484       0.00003505
C        2.26454817       0.24810737       1.02848359      -0.01277697      -0.01437699       0.01303595
C        2.66184703       1.35215269       0.33870153       0.02369818       0.00219381      -0.01594907
Cl       1.13733701       2.46882115      -1.27199459      -0.00460196       0.00571227       0.00119612
S       -0.14486266       0.14695222       0.96913811       0.01690662       0.00861462       0.00440884
O       -0.26342050       1.44434011       1.55104344      -0.00856653      -0.00251055      -0.00133967
O       -0.20812422      -1.06843168       1.71824351       0.00455715      -0.00244212      -0.00884461
C       -0.84785733      -0.00049666      -0.71978524      -0.00536221      -0.02258398      -0.00222854
Br      -2.73189342      -0.24249593      -0.51281954      -0.00012380       0.00874769      -0.00107855
H        1.80087934      -0.36497921      -1.45381582      -0.02554641       0.01897895       0.00864455
H        2.13571726      -1.90291232       1.12971633      -0.00971439       0.01687304       0.00869517
H        3.63718502      -1.24647865       0.45392745      -0.00028616      -0.02601594       0.00054638
H        2.02556871       0.38560409       2.07508424      -0.00126691       0.00680017      -0.00095958
H        3.21542763       1.25227915      -0.58260411      -0.00787317      -0.00639880      -0.00394938
H        2.56626193       2.32892625       0.77950102      -0.00541886      -0.00285670      -0.00067998
H       -0.62338422       0.95387878      -1.21187827       0.00691584       0.00620925       0.00441277
H       -0.43318178      -0.88062263      -1.19711372      -0.00507727      -0.00009151      -0.00236085
