28
Properties=species:S:1:pos:R:3:forces:R:3 /mnt/e/work/rmlp/database/CAMD/log/success_log/ts_3_1_NO2-C-3-e_opt.log=T energy=-17667.562913633861 pbc="F F F"
C       -4.53270216       0.02521599      -1.24060248      -0.00227749      -0.00229177       0.00199044
C       -3.48838334      -0.20558731      -0.16544426       0.00640358       0.00275409      -0.00247121
N       -2.15483370      -0.12050077      -0.75627714       0.00243762      -0.00042272       0.00024509
C       -1.05640854      -0.21552555       0.15163043      -0.00510794      -0.00778076       0.01188177
C       -0.92881141       0.97025497       1.07743951      -0.00449079      -0.00717831      -0.01161903
O       -1.67520242       1.91126026       1.03797293      -0.00346231      -0.00056541       0.00375932
N        0.07856230      -0.82239002      -0.31620411       0.01390383       0.01141907      -0.01748329
C        1.38304018      -0.30457378      -0.24838369      -0.01815015      -0.00967941       0.00288844
C        1.66788718       1.05924114      -0.30548436       0.00083527       0.00610064       0.00319903
C        2.98884814       1.49019866      -0.37171172       0.00497819      -0.00040543      -0.00236490
C        4.03712707       0.58342612      -0.36872724      -0.00128511       0.00238011       0.00262663
C        3.75059715      -0.77677167      -0.30746341      -0.00215408      -0.00242479      -0.00088598
C        2.44253963      -1.21855349      -0.25826958       0.00171769      -0.00565802      -0.00264898
O       -0.01392901      -1.88406767       1.35839874       0.00754935       0.00067914       0.00185311
H       -4.44963610      -0.71802475      -2.03413146       0.00093272      -0.00010191      -0.00077340
H       -4.41154540       1.01233187      -1.68321420       0.00003179       0.00238723       0.00035886
H       -5.53596647      -0.04248876      -0.82010614       0.00125335      -0.00066344      -0.00200874
H       -3.55908055       0.57190500       0.59339404      -0.00024274       0.00006858       0.00183465
H       -3.66676653      -1.16763872       0.33140822       0.00014484       0.00064871       0.00003481
H       -2.02591679      -0.77264531      -1.51903943       0.00070035      -0.00017958       0.00028455
H       -0.10075278       0.88749412       1.80765282      -0.00121145       0.00270154       0.00536579
H        0.87608298       1.79231023      -0.32810159       0.00302964      -0.00043499      -0.00147880
H        3.18485828       2.55385242      -0.42042500       0.00017519       0.00015521      -0.00131459
H        5.06180861       0.92682785      -0.42032534      -0.00013262      -0.00013402      -0.00015985
H        4.55165061      -1.50491302      -0.29501109       0.00088510       0.00167644      -0.00066359
H        2.20517654      -2.27373331      -0.22164192      -0.00382587       0.00085324       0.00270609
H       -1.15454002      -1.11852822       1.00652482       0.00069016       0.00590505       0.00576939
H        0.39527653      -2.63036627       1.83033263      -0.00332823       0.00019050      -0.00092560
