31
Properties=species:S:1:pos:R:3:forces:R:3 /mnt/e/work/rmlp/database/CAMD/log/success_log/ts_305_1_RR-A-9-a_opt.log=T energy=-20318.105641642192 pbc="F F F"
C        1.36896091      -0.86161170       0.63564400       0.00512332      -0.01177959      -0.01336762
C        0.04541748      -0.88255782      -0.88157653      -0.00516872       0.01507077       0.01546270
C       -0.79312878       0.20241882      -0.62250095       0.01113096       0.00427723      -0.02445069
C       -0.29620463       1.47995348      -0.83975115       0.00931255       0.01932371       0.00708832
C       -1.10390266       2.71931887      -0.60880552       0.00203380      -0.01054776       0.00525099
N       -1.87938870       0.04730176       0.27866823      -0.02789593      -0.00137434       0.01605648
C       -1.89290703       0.68696584       1.59535128       0.01106490      -0.01102430       0.00727725
C       -2.88743454      -0.82070794      -0.02059679      -0.02510071      -0.02144587      -0.01875687
O       -3.89894094      -0.98812610       0.61562956      -0.00181627       0.00548297      -0.00552273
O       -2.63738043      -1.48419937      -1.17067999       0.01114666       0.00084031       0.00752157
C        2.34945973      -1.85971509       0.36724482       0.01345634       0.00521344       0.00123016
C        3.59503526      -1.52342249      -0.07787019      -0.01550720      -0.00599286       0.00618629
C        3.92386597      -0.15433135      -0.24114437       0.01074782       0.00125846      -0.00160436
C        3.03173987       0.83826515       0.05831728      -0.00023216       0.00971897       0.00094050
C        1.73714568       0.52577978       0.54215389       0.00097239      -0.01888931       0.00738946
O        0.86001406       1.42890440       0.77978008       0.00412673       0.00897527      -0.01701958
H        0.57059184      -1.10519474       1.32662291       0.00523192      -0.00355518       0.01326015
H        0.72462681      -0.80931256      -1.72272773       0.00178647      -0.00531658      -0.00116846
H       -0.34689500      -1.87437341      -0.68848278      -0.00936485       0.00331730       0.00084263
H        0.54747598       1.58660094      -1.51310913       0.00288326       0.00439759       0.00450905
H       -0.59489694       3.40327360       0.06644021       0.00084218       0.00179724       0.00173143
H       -1.25256258       3.22716438      -1.56238238      -0.01188722      -0.00105688      -0.00529987
H       -2.07398423       2.45315496      -0.19492245      -0.00405151       0.00011119      -0.00287566
H       -1.19324297       1.51759331       1.58563225       0.00069453       0.00522391      -0.00657149
H       -1.59192283      -0.02310675       2.36885814       0.00316329       0.00017922      -0.00077547
H       -2.90919056       1.01092370       1.81262930      -0.00006919       0.00438226       0.00075880
H       -3.43875518      -1.99790070      -1.34762587      -0.00128728       0.00171596       0.00381166
H        2.08146889      -2.89992223       0.50676378       0.00028229      -0.00106043       0.00041282
H        4.32480324      -2.28698886      -0.31087734       0.00050023       0.00069359      -0.00158668
H        4.90061001       0.11266708      -0.62439399       0.00025865       0.00141580      -0.00064988
H        3.28356224       1.88738506      -0.03676857       0.00762206      -0.00135338      -0.00008173
