15
Properties=species:S:1:pos:R:3:forces:R:3 /mnt/e/work/rmlp/database/CAMD/log/success_log/ts_39_1_A-E-1_opt.log=T energy=-20335.445841298311 pbc="F F F"
C        0.36386408       0.75087426      -0.40348950       0.01144266       0.02877761       0.00050336
C        1.47196511       1.52388947      -0.04936854       0.00591791       0.00139976       0.00594676
Cl       2.93053943      -0.61814239       0.13209492      -0.00997906       0.00744404       0.00458862
C       -0.70291026       0.48540786       0.62289589      -0.00938182      -0.01062745       0.00366509
N       -1.45257961      -0.69492404       0.27801017      -0.00883251       0.00926799      -0.01295520
C       -2.75579663      -0.64434547      -0.10334706       0.01439023      -0.00165844       0.02298450
O       -3.44186897       0.34904064      -0.08733541       0.00494432      -0.00448895      -0.00493366
H        1.20995846      -0.19502763      -0.29587354       0.00857198      -0.01778802      -0.01476170
H        0.06419063       0.75613618      -1.44680150      -0.00940946      -0.01194391       0.00184870
H        2.15831667       1.90714057      -0.78776430       0.00078905      -0.00321311       0.00072753
H        1.65514105       1.79127357       0.98344114      -0.00111717       0.00008088      -0.00210547
H       -0.22272143       0.33431661       1.59072610      -0.00138730       0.00294679       0.00230940
H       -1.40010789       1.31774639       0.70086878      -0.00020843       0.00153519      -0.00000819
H       -0.95385187      -1.56317799       0.21094993      -0.00601843      -0.00235993      -0.00343637
H       -3.15182878      -1.62259802      -0.42308707       0.00027852       0.00062749      -0.00437392
