22
Properties=species:S:1:pos:R:3:forces:R:3 /mnt/e/work/rmlp/database/CAMD/log/success_log/ts_324_4_R-A-7_opt.log=T energy=-22942.313542572898 pbc="F F F"
O        0.37106837       1.53358734       0.65504792      -0.00513957      -0.00198841      -0.00047518
C       -0.58791514       2.22682898      -0.03918813       0.00076720      -0.00085235      -0.00250232
C       -0.68808694       0.72069453      -0.41516789       0.01504707      -0.00928763       0.01830339
C       -1.76362274       0.07517124       0.46455492      -0.00708461       0.00262403      -0.00739092
Cl      -2.41851950      -1.43261313      -0.26308123       0.00361925       0.00090283       0.00210209
N        0.31915896      -0.45594386      -0.65217380      -0.00806719      -0.01226687      -0.02224880
N        1.66366820      -0.15715708      -1.13566242       0.00399601       0.01239955       0.00198911
C        2.64019156      -0.87706316      -0.31322070       0.00060900      -0.00198877       0.00232932
C        3.02615162      -0.19446181       0.99179355       0.00036842       0.00205493       0.00376642
H        0.33297653      -0.99460172       0.22361503      -0.00325710       0.00979930       0.00380540
H       -1.39785205       2.65963022       0.55445375      -0.00034255      -0.00059426       0.00449569
H       -0.24057216       2.91125295      -0.82132177      -0.00171567       0.00100791      -0.00129457
H       -1.04891339       0.80144060      -1.45556643       0.00234091      -0.00056012      -0.00075653
H       -1.37167771      -0.16885134       1.45359598       0.00145508       0.00249189       0.00010674
H       -2.61892364       0.74055040       0.56668835       0.00108725       0.00087664       0.00217901
H       -0.13027129      -1.01856914      -1.36667312       0.00202094       0.00385576      -0.00145864
H        1.74637911       0.84790221      -0.97638347      -0.00700582      -0.00564134      -0.00081375
H        2.23018256      -1.87177209      -0.11348732      -0.00274263       0.00179034       0.00021838
H        3.52732942      -1.02900039      -0.93453052       0.00048612      -0.00789200       0.00129510
H        3.97949694      -0.59397504       1.34376595       0.00498641       0.00420305      -0.00148421
H        3.14708355       0.88061558       0.85749824       0.00048530      -0.00022966       0.00101990
H        2.29381773      -0.34971530       1.78574310      -0.00191343      -0.00070456      -0.00318590
