24
Properties=species:S:1:pos:R:3:forces:R:3 /mnt/e/work/rmlp/database/CAMD/log/success_log/ts_396_1_S-A-9_opt.log=T energy=-98639.879115683972 pbc="F F F"
O        0.42089598       0.52262728       1.72588168       0.02617657       0.01210511       0.00486314
C        0.42270437       0.25871300       0.56495952      -0.02019676      -0.01310962      -0.01358485
C        1.45877133      -0.51539228      -0.18015945       0.00877935      -0.01484001       0.00226963
C        2.79352479      -0.34969430       0.50895563      -0.00494007      -0.01028997       0.01700979
N        3.83202267      -1.27789336      -0.07025813       0.01625252      -0.00316358       0.00784940
O        4.89026074      -1.32483079       0.51663125      -0.01159465      -0.00734514       0.00782165
O        3.55408998      -1.90187873      -1.07109877      -0.00178431       0.01006567      -0.01394796
O       -0.67459602       0.57655816      -0.26247152      -0.01311880      -0.01060838       0.00761443
C       -1.78486639       1.18554823       0.46085326       0.00296047       0.01456940       0.00449300
C       -2.63285133       0.11697851       1.09882069      -0.00868654       0.01134980       0.00713444
Br      -3.42254745      -0.99773990      -0.26940060       0.00156653      -0.00267802      -0.00177526
C       -0.35866324       1.88016711      -1.81098687       0.02161823       0.01749671      -0.00298774
Cl       1.60837729       2.76696861      -0.38820432      -0.01455086      -0.01216564      -0.01222047
H        1.13424478      -1.55729578      -0.16228002      -0.00085525      -0.00033891      -0.01069694
H        1.50643994      -0.21112263      -1.22416377       0.00917959       0.00319075       0.00358517
H        3.20650785       0.64829553       0.38322942      -0.01280046       0.00428672      -0.00899554
H        2.73755885      -0.57216169       1.57061247       0.00860836       0.01440815      -0.00245741
H       -2.33319551       1.74381683      -0.29590589       0.00915985       0.00214027      -0.00562059
H       -1.35477845       1.85917094       1.20239816      -0.00763490       0.00398448      -0.00259306
H       -3.44420435       0.56765252       1.66323465       0.00621390      -0.00320194       0.00761140
H       -2.04388089      -0.52368827       1.74500754      -0.00143647      -0.00884013      -0.00846910
H        0.59374730       1.84684377      -2.31791721       0.00083244      -0.00179180       0.00954789
H       -1.16774680       1.29717929      -2.23136633       0.00234815      -0.00028479      -0.00205696
H       -0.58647545       2.74829796      -1.21561141      -0.01609729      -0.00493917       0.00560576
