11
Properties=species:S:1:pos:R:3:forces:R:3 /mnt/e/work/rmlp/database/CAMD/log/success_log/ts_361_1_NO2-A-3-b_opt.log=T energy=-15535.585402733323 pbc="F F F"
O        1.66486848       1.22550740       0.57683217      -0.00573671      -0.01066470       0.01175046
N        0.75643660       0.41813341       0.86079437      -0.00977156      -0.00281894       0.00539213
C        0.34338549       0.02275285      -0.42298894       0.01749080       0.01580429       0.01391822
C        1.42504393      -0.96783310      -0.87703057      -0.00732422       0.00055465       0.00148493
O        2.47821806      -0.60131776      -1.32077303       0.00866163      -0.00388092      -0.00704402
O       -0.91447335      -0.63907319      -0.36258237       0.01156056      -0.00086117      -0.00463025
C       -1.94684871       0.11603044       0.04994945      -0.00937235       0.00373024       0.00266445
O       -2.88386918       0.39717116      -0.60332194       0.01012373      -0.00163287       0.00640380
F       -1.77730617       0.49918997       1.31194424      -0.00000802       0.00092512      -0.00660431
H        1.29159584       1.15340458      -0.63549438      -0.01468537      -0.00213964      -0.02418143
H        1.15760901      -2.03644576      -0.77362903      -0.00093892       0.00098389       0.00084573
