14
Properties=species:S:1:pos:R:3:forces:R:3 /mnt/e/work/rmlp/database/CAMD/log/success_log/ts_377_1_S-A-4_opt.log=T energy=-16258.824992879881 pbc="F F F"
O       -0.01288993       1.13990509       1.55150720       0.00405747      -0.00271695       0.00051510
C       -0.08174547       1.11322242       0.37225483      -0.00932586       0.00720024       0.00115108
F       -0.23789763       2.21073723      -0.38295211       0.00230839       0.00297481      -0.00347328
N       -0.79544741      -0.02011344      -0.32648817       0.01949066       0.00483444      -0.00627589
C       -2.03700385      -0.48791631       0.31966760      -0.01063156      -0.00549203       0.00356287
F       -1.93814631      -1.85175249       0.42337129      -0.00386663       0.00124177       0.00041386
O        1.59851442       0.76050249      -0.41769646      -0.00168204       0.00253916       0.00094141
C        2.04636183      -0.40329507      -0.17890567      -0.00423867      -0.01624125       0.00601791
O        1.36609882      -1.42254546       0.00652467       0.00309432       0.00861597      -0.00584185
H       -0.92038579       0.23283839      -1.30129343      -0.00735274      -0.00539419       0.00695843
H       -2.09296843      -0.05267529       1.31038200       0.00392267      -0.00144368      -0.00089317
H       -2.89336198      -0.24658398      -0.30440099       0.00215204       0.00092316      -0.00276791
H       -0.07628045      -0.80101976      -0.24612846       0.00297701      -0.00064075       0.00016186
H        3.14491216      -0.50579382      -0.15409230      -0.00090504       0.00360038      -0.00046988
