22
Properties=species:S:1:pos:R:3:forces:R:3 /mnt/e/work/rmlp/database/CAMD/log/success_log/ts_394_2_A-E-8_opt.log=T energy=-12013.639840628502 pbc="F F F"
C        0.05096532       2.01522980      -0.26675570      -0.01523167       0.03349781      -0.01512390
C        0.42646665       0.66165469      -0.27939678       0.01237440      -0.01298776       0.00307867
O        1.23142645       0.19022458       0.72215685       0.01812997       0.01339287       0.00540997
C        2.07690854      -0.88263552       0.31746338      -0.00636137      -0.00026688       0.00638965
C        3.25281881      -0.42514591      -0.53160750       0.00795245      -0.00208381      -0.01100981
C       -1.33474985       0.61358684       0.27938959      -0.00370932      -0.02097917      -0.02123368
O       -1.48517368       0.50624347       1.49064215      -0.00351629       0.00063987       0.01343167
C       -2.11681030      -0.17408705      -0.77238461      -0.00299162      -0.01993209       0.00320888
N       -2.22320691      -1.59951668      -0.52452405      -0.00178134       0.03247941       0.00450253
H       -1.47950853       1.74051795      -0.22552263       0.00664129       0.00123173       0.00119832
H        0.00415104       2.58000105      -1.19167318       0.00137949       0.00073645       0.01470500
H        0.05024113       2.58182166       0.65509148       0.00334828      -0.01248047      -0.00654122
H        0.49299873       0.11443827      -1.22367102      -0.00954342      -0.00091313       0.00541264
H        2.43453801      -1.33138274       1.24306269       0.00054929      -0.00642932      -0.00176871
H        1.48184695      -1.62695460      -0.22092772      -0.00411379       0.00625187      -0.00103545
H        3.88182958      -1.28570364      -0.76343561       0.00272285       0.00402042       0.00206849
H        2.92912559       0.01995199      -1.47270797       0.00085317      -0.00348046      -0.00030676
H        3.85367480       0.30491896       0.00971339      -0.00551689      -0.00071491       0.00470829
H       -3.12826709       0.24796991      -0.73449311      -0.00314562       0.00167927      -0.00668093
H       -1.71471639       0.02359249      -1.76625951       0.00482149      -0.00472692       0.00514334
H       -2.47268022      -1.75612857       0.44728483       0.00400540      -0.00164840       0.00190020
H       -1.33161863      -2.05469696      -0.68296498      -0.00686711      -0.00728635      -0.00745761
