22
Properties=species:S:1:pos:R:3:forces:R:3 /mnt/e/work/rmlp/database/CAMD/log/success_log/ts_372_1_RR-B-4-b_opt.log=T energy=-14856.079609493867 pbc="F F F"
C        3.47834242       0.41788096      -0.64602279      -0.00499338      -0.00543869      -0.00665879
N        2.36666569      -0.27286684      -0.01867972       0.00831628       0.00254171      -0.00256902
C        2.28797596      -0.01282290       1.40961832      -0.01109045       0.00110698       0.01091778
N        1.13776082       0.14137806      -0.61545281      -0.01141196       0.00422627       0.00221288
C        0.19048493      -0.95504853      -0.49545724      -0.00156993       0.00389802       0.02645236
C       -1.03360121      -0.69776042      -1.36446389       0.00809139      -0.02709842      -0.00181055
N       -2.10404075       0.05217229      -0.73119652       0.00910616       0.00931138      -0.02093804
C       -1.40041240       1.55103465       0.01536586       0.01452565      -0.01683325       0.00641370
O       -2.05259673       2.42887703      -0.33746020      -0.00519276       0.01016265       0.00044322
N       -2.69590681      -0.64417143       0.58737250      -0.01061392      -0.00064242      -0.00014520
N       -2.12765081      -0.72698216       1.55950000       0.00046754       0.00150806       0.01350284
H        3.46507103       0.21235606      -1.71616145       0.00144492       0.00024375       0.00140363
H        4.41552580       0.03352694      -0.24137021       0.00177940       0.00229122       0.00074541
H        3.45170588       1.50613605      -0.49675611       0.00233790       0.00337172       0.00154170
H        1.48949052      -0.60943501       1.84771983       0.00187257       0.00368798       0.00162911
H        3.22799511      -0.30208127       1.88094355       0.00189738      -0.00300993      -0.00536800
H        2.09317610       1.04650745       1.62018416      -0.00185209       0.00106061      -0.00081903
H        1.29912593       0.34306752      -1.59348317       0.00446798      -0.00323424      -0.00038967
H       -0.12638545      -1.01589983       0.54973473       0.01055098      -0.00124006      -0.01266139
H        0.65860910      -1.90465444      -0.75968738      -0.00600659       0.00366968      -0.01105209
H       -0.73895740      -0.08391264      -2.22323496      -0.00888661       0.00950342      -0.00451930
H       -1.42705774      -1.64447155      -1.74470250      -0.00324172       0.00091329       0.00166731
