16
Properties=species:S:1:pos:R:3:forces:R:3 /mnt/e/work/rmlp/database/CAMD/log/success_log/ts_45_1_NO2-A-3-d_opt.log=T energy=-20480.322354744727 pbc="F F F"
O        0.49584832      -1.35968826       0.99751952      -0.00098991       0.00707135      -0.00152469
N        1.65545217      -0.77081429       1.15135969      -0.00703108      -0.00036663       0.02760136
C        1.58019593       0.67625217       0.87734667       0.00654095       0.00764488      -0.00132197
C        0.82021262       1.19826635      -0.30919348      -0.01715773      -0.01165354       0.00274384
O        0.86761732       2.31811261      -0.67634682       0.01108925       0.00360847      -0.00168604
O        0.14929125       0.24873437      -1.12773801       0.02447757       0.00993475      -0.00453192
C       -0.93775518      -0.43728044      -0.81197375      -0.01359192      -0.02258193       0.01811683
O       -1.27164572      -1.44895636      -1.30071791      -0.00249815       0.01018167      -0.00244522
N       -1.85986052       0.26777966       0.25109029      -0.00909007       0.02002811      -0.02600598
O       -2.96553905      -0.17458063       0.36311276      -0.00027549      -0.01137063       0.01054329
O       -1.36188807       1.17459798       0.87814592      -0.00263885      -0.01340497       0.00903898
O        2.14265288      -1.42567696      -0.42172955       0.01918770      -0.00676186      -0.03122473
H        1.14394586       1.13892863       1.76262046       0.00170306       0.00607647      -0.00014581
H        2.59522771       1.06127800       0.78259261       0.00478169      -0.00271374      -0.00269928
H        1.02408397      -1.74479474      -0.05142114       0.00389540      -0.00441980      -0.00439334
H        2.76736052      -2.10157809      -0.12819724      -0.01840243       0.00872695       0.00793439
