13
Properties=species:S:1:pos:R:3:forces:R:3 /mnt/e/work/rmlp/database/CAMD/log/success_log/ts_402_1_S-B-5-a_opt.log=T energy=-10384.779514185007 pbc="F F F"
O        2.05496620       0.78776940      -0.59477653      -0.00468743      -0.00727736       0.00301850
C        1.50193572      -0.43904924       0.65799315       0.01226676      -0.00562346      -0.00817108
O        2.31022188      -1.20193066       0.96872791      -0.00043136      -0.00068390      -0.00010139
C        0.23065664       0.16028508       0.68707516      -0.01140086       0.00793955       0.00398105
C       -0.85461261      -0.45657158      -0.15517892       0.00602457       0.00345695       0.00589156
C       -2.12153830       0.37506055      -0.17272814      -0.00028706      -0.00168180      -0.00084901
O       -2.53738791       0.99005461       0.77053982       0.00514907      -0.00127071      -0.00025535
H        2.66641470       1.34615103      -0.09660439      -0.00428642       0.00171699      -0.00073627
H        0.93560042       1.00477616      -0.13533912       0.00545035       0.00276387       0.00532758
H       -0.03439209       0.73459753       1.56684908      -0.00544679       0.00305408      -0.00582010
H       -0.51966923      -0.56261337      -1.18983632      -0.00084935      -0.00077946       0.00128819
H       -1.12114923      -1.46500591       0.19074066      -0.00021169      -0.00297922      -0.00313834
H       -2.67777619       0.39251641      -1.13473235      -0.00128978       0.00136414      -0.00043565
