22
Properties=species:S:1:pos:R:3:forces:R:3 /mnt/e/work/rmlp/database/CAMD/log/success_log/ts_42_1_S-A-17_opt.log=T energy=-17087.953164436309 pbc="F F F"
C        0.43727215       1.32905474       1.54142650      -0.00067410      -0.00564316      -0.00503957
C        0.66499817       1.25637716       0.06694841       0.01504350      -0.01882583      -0.00942725
O        1.33306751       1.94677829      -0.63806170      -0.01311958       0.01091796       0.00595626
N       -0.50369737       0.50681514      -0.67809404      -0.00694716       0.01426345       0.00134110
O       -1.74245891       0.52181660      -0.04110071       0.00040138       0.00345534       0.01951620
C       -2.53973544      -0.53415538      -0.47352017      -0.01398861       0.00916231      -0.00582290
C       -2.18881452      -1.82967472       0.19136420      -0.00363657      -0.00630319      -0.00250357
O       -3.41187255      -0.31545682      -1.25179103       0.01453233      -0.00774142      -0.01011962
O        1.40118174      -0.74490360      -0.07016424       0.00057602       0.00534415       0.00396442
C        2.65566859      -0.69534321      -0.61806567       0.01183939       0.00494836       0.00299507
O        3.70348620      -0.60571255       0.34438955      -0.00362468       0.00295933       0.00063503
H        1.23378161       1.92804612       1.97232603      -0.00064559      -0.00159117      -0.00089015
H       -0.52808029       1.81075587       1.70588583       0.00233075       0.00434037       0.00002069
H        0.41549527       0.33730710       1.98584576      -0.00259652       0.00017683       0.00101301
H       -0.60986664       0.94389365      -1.59837018       0.00210246      -0.00525206      -0.00495362
H       -2.03295724      -2.59447504      -0.57045157      -0.00832484      -0.00264861      -0.00064544
H       -1.29780673      -1.73255136       0.80753771       0.00570989      -0.00215563      -0.00530401
H       -3.02980250      -2.13433813       0.81570741       0.00485434       0.00637575       0.00842939
H       -0.03664607      -0.45382741      -0.66468369      -0.00106962      -0.00506741       0.00582319
H        2.85383654      -1.57826012      -1.24429459      -0.00266789      -0.00187421       0.00077659
H        2.78019755       0.18629845      -1.26278070       0.00019041      -0.00192404       0.00050151
H        3.30506295      -0.82144477       1.19726689      -0.00028551      -0.00291754      -0.00626561
