28
Properties=species:S:1:pos:R:3:forces:R:3 /mnt/e/work/rmlp/database/CAMD/log/success_log/ts_448_1_NO2-A-11-d_opt.log=T energy=-22633.425832499503 pbc="F F F"
C        0.60856011      -1.46994704       1.62316732      -0.00723183      -0.00164068       0.01106131
C        0.95366760      -0.23027545       0.83892846       0.00687480      -0.00957245       0.00336832
N        1.54660433      -0.53832406      -0.46524462       0.01585916       0.00202906       0.00723261
N        2.92342866      -0.77152372      -0.44766473      -0.01302338      -0.01363486      -0.00910909
O        3.40892365      -1.16681357       0.59245409       0.00496733       0.00477129      -0.00054276
O        3.49309252      -0.60092366      -1.50110685       0.00276077       0.00299929       0.00381291
N       -0.25038611       0.59975343       0.56564621      -0.01765531       0.00247699      -0.00437471
N       -0.14870644       1.85057077       0.34190587       0.00449792      -0.01931125       0.01519620
O        0.93754072       2.39902118       0.93781660      -0.00560617       0.01567584      -0.00147003
C       -1.51273425       0.05425238       0.15347479       0.00586605       0.00057322      -0.00093396
C       -1.58166180      -1.09546574      -0.62153713       0.00035832      -0.00065690       0.00293670
C       -2.82593203      -1.59922534      -0.98178544       0.00321043      -0.00096698       0.00106167
C       -3.98547839      -0.94716531      -0.59611422      -0.00172302       0.00062114      -0.00265409
C       -3.90231854       0.22101894       0.15332808      -0.00211820       0.00124894       0.00250072
C       -2.66746153       0.72676777       0.52465006       0.00036749      -0.00242567      -0.00349632
O        0.96945073       2.03315048      -1.46555459       0.00987691       0.00625736      -0.00092059
H        0.05138301      -2.17798165       1.01425222      -0.00157498       0.00276960      -0.00615636
H        0.01310150      -1.20477782       2.49601371      -0.00058420       0.00166383      -0.00171861
H        1.53906454      -1.93253410       1.94505394      -0.00030762       0.00228185      -0.00095113
H        1.62576116       0.41347495       1.40717127       0.00151089       0.00196724      -0.00315385
H        1.36601068       0.21913531      -1.13490414      -0.00163792       0.01147687      -0.00703431
H       -0.67989603      -1.59303906      -0.95229375      -0.00538605      -0.00028985      -0.00209367
H       -2.87925320      -2.51106505      -1.56114375      -0.00083396      -0.00082946       0.00136754
H       -4.95257570      -1.34389031      -0.87449396       0.00060400      -0.00037119       0.00072676
H       -4.80261323       0.74405650       0.44888286       0.00091001      -0.00070044       0.00020361
H       -2.58327071       1.64132528       1.09436832       0.00049265       0.00235844      -0.00229025
H        1.41145395       2.64644165       0.09087590       0.00629497      -0.00618324      -0.00536883
H        0.19193480       2.47313323      -1.83530651      -0.00676847      -0.00258774       0.00279996
