10
Properties=species:S:1:pos:R:3:forces:R:3 /mnt/e/work/rmlp/database/CAMD/log/success_log/ts_41_2_A-D-1_opt.log=T energy=-22833.096322125195 pbc="F F F"
O       -1.92142486      -0.07035373      -1.09071646       0.00012708       0.00697875      -0.00709987
C       -1.46374429      -0.67396309      -0.05720185      -0.00842708       0.00024384       0.02352881
O       -1.96888221       0.44888888       1.00119489       0.00372624      -0.00669020      -0.00520623
O       -0.04463667      -0.82390489       0.10332805       0.00558478       0.00363299      -0.01083121
C        0.72006369       0.26658765      -0.05435289      -0.00979980      -0.00288308       0.01301780
O        0.36463072       1.37910792      -0.23255714       0.00163382       0.00312281      -0.00640488
Cl       2.39677312      -0.21196666       0.06166128       0.00620142      -0.00214815      -0.00086535
H       -2.19940763       0.76889498      -0.11505086      -0.00095230      -0.00138414      -0.00622177
H       -1.86962456      -1.62181719       0.30233608       0.00206760      -0.00183433      -0.00296811
H       -2.76506732       0.06595614       1.38008889      -0.00016183       0.00096136       0.00305063
