23
Properties=species:S:1:pos:R:3:forces:R:3 /mnt/e/work/rmlp/database/CAMD/log/success_log/ts_478_2_R-A-7_opt.log=T energy=-18124.072361152699 pbc="F F F"
O       -0.68044030       2.40935894      -0.57046962       0.00983983       0.00243366       0.00597525
C       -1.15017859       2.16663641       0.69669191      -0.02120051      -0.00007105      -0.01455179
C       -1.21262402       0.70409829       0.51342231       0.00703216      -0.01218638       0.00928348
C       -2.01709160       0.13348929      -0.62596086       0.00564185       0.02635467      -0.00971276
C       -2.69422984      -1.15304139      -0.22782354       0.00469640      -0.01884866      -0.00703275
O       -2.35665623      -1.83844934       0.69994225       0.00754741       0.01554632      -0.00122881
O       -3.72208727      -1.48220605      -1.03126350       0.00370961       0.00642550       0.00048997
N        1.03954558       0.54116020       0.31634787       0.00813031       0.00186501      -0.02376318
O        2.47332870       0.51513119       0.56399579      -0.00010404       0.00476456       0.01294405
C        3.05185642      -0.59338039       0.06961227      -0.02433181      -0.02289623      -0.01534247
C        4.47309469      -0.69545717       0.52540736       0.00366473      -0.00176170       0.00411284
O        2.46767488      -1.37507823      -0.63652266      -0.00357676       0.02105844       0.00991905
H        0.87453141       1.44488280      -0.14409742      -0.00033051       0.00789106       0.01505545
H       -2.15970909       2.58839789       0.87948770       0.00433874       0.00034577       0.00210365
H       -0.48859722       2.49464099       1.51030931       0.00382429      -0.00403780      -0.00407618
H       -0.96562215      -0.01239332       1.28982429      -0.00249687      -0.00139636       0.00189912
H       -1.38663280      -0.07250176      -1.49667067      -0.00629586      -0.01008000      -0.00491655
H       -2.74606362       0.87697856      -0.95042839      -0.00378639      -0.00611055       0.01151506
H       -4.07967112      -2.31264392      -0.68157743       0.00534403       0.00104173       0.00290090
H        0.88712551      -0.18911194      -0.38652858      -0.00237006      -0.01716992       0.00829136
H        4.96055472      -1.50582284      -0.00727533      -0.00283479      -0.00076772       0.00017059
H        4.99773004       0.24177799       0.35406909       0.00265415       0.00045216      -0.00469220
H        4.48861189      -0.90063622       1.59516785       0.00090432       0.00714761       0.00065497
