24
Properties=species:S:1:pos:R:3:forces:R:3 /mnt/e/work/rmlp/database/CAMD/log/success_log/ts_489_1_S-G-5_opt.log=T energy=-26811.121018138456 pbc="F F F"
C       -4.11861910       0.77737728       0.05763036       0.00887263      -0.00840914      -0.00524443
C       -2.95268302      -0.03783993      -0.44961935      -0.00378096      -0.00123650      -0.00717106
O       -2.04254300      -0.20764952       0.63862845      -0.01069367       0.00184268       0.01027915
O       -1.15023357      -1.25726262       0.23656066       0.01290566      -0.00515580      -0.00229709
S        0.63076698      -0.26772059      -0.38286524      -0.01426840       0.01512071       0.01720738
O        0.88865350      -1.49633058      -1.05448970       0.00144553      -0.00860524      -0.00551176
O       -0.16049429       0.85590562      -0.76973624      -0.01268065       0.00064349       0.00356460
N        2.15654096       0.45562645      -0.41747899       0.01324975      -0.01241153      -0.00810081
C        3.31102202      -0.37545326      -0.14679309       0.00519979       0.00444371      -0.00964031
N        2.14898383       1.64146258       0.39576169      -0.02371019       0.00876009       0.00225633
N        0.63696787      -0.43796889       1.44043485       0.00470574      -0.01234994       0.00317466
H       -4.58836560       0.26796749       0.89718835       0.00022352       0.00317243       0.00135055
H       -3.77591334       1.75259982       0.39792332      -0.00055790       0.00525044      -0.00123781
H       -4.85821909       0.91671053      -0.73262573      -0.00381424      -0.00132684       0.00137430
H       -2.41933288       0.47310024      -1.24828081       0.00399435       0.00054006       0.00425720
H       -3.24954363      -1.02656525      -0.79874114       0.00121755       0.00408173      -0.00116667
H        3.17614488      -1.35112696      -0.60143525       0.00811914      -0.00491114       0.00238949
H        4.17116888       0.09730391      -0.61744042      -0.00469050      -0.00477144      -0.00512627
H        3.52893029      -0.48721732       0.92334750       0.00087649       0.00269869      -0.00020307
H        1.41816460       2.23295706       0.00679281       0.01633012       0.00806803      -0.00885051
H        3.02495923       2.11389988       0.17537039       0.00653467      -0.00525891       0.01357865
H        1.42195694      -1.00801015       1.73007295       0.00825047       0.00981846      -0.00164080
H        0.67819599       0.47675202       1.88257831      -0.00491071       0.00086087       0.00090313
H       -0.32197843      -0.94275781       1.47840633      -0.01281726      -0.00086486      -0.00414443
