25
Properties=species:S:1:pos:R:3:forces:R:3 /mnt/e/work/rmlp/database/CAMD/log/success_log/ts_547_1_RR-A-9-a_opt.log=T energy=-14116.367644704907 pbc="F F F"
C       -1.00942429       0.89768543       0.68935706      -0.00679133       0.00645101      -0.00127596
C        0.15055606       1.45130685      -0.93640457       0.02353224      -0.00707660      -0.00392720
C        1.45219807       1.30929705      -0.48156811      -0.02221479      -0.00739628      -0.01091337
C        2.02636936       0.04014295      -0.33668475      -0.00243765       0.00597779       0.02628595
C        3.26377659      -0.12617461       0.50007146      -0.00085461       0.00348757      -0.01032263
N        1.77262077      -0.93780661      -1.28168254      -0.00663546       0.00296974      -0.00427854
C       -2.36309881       1.09752261       0.31994100       0.00261277      -0.00528771       0.01084930
C       -3.10790993       0.06930324      -0.19066956       0.00516276      -0.01441446      -0.00545971
C       -2.52650289      -1.21495069      -0.27952599      -0.00137320       0.02088058       0.00373887
C       -1.25972176      -1.46755466       0.17983903      -0.01782574      -0.00003481      -0.01009282
C       -0.45850267      -0.42823583       0.72694176       0.01173472      -0.00255376       0.00199968
O        0.74470325      -0.61373602       1.10739236      -0.00093019      -0.00338799      -0.00941950
H       -0.50536013       1.64272157       1.29254885       0.00090095       0.00447026       0.00468453
H       -0.25501417       0.74741954      -1.64934270       0.00036904      -0.00102486      -0.00052568
H       -0.28933524       2.44120819      -0.97009250      -0.00368977       0.00302240      -0.00037789
H        1.89514914       2.11215054       0.09456026       0.00673574      -0.00385010       0.00044569
H        3.39509442      -1.15757286       0.82359835       0.00292019      -0.00287321      -0.00017195
H        3.20628584       0.50177817       1.38492755       0.00125885      -0.00014852       0.00394583
H        4.13216284       0.17334701      -0.09042383      -0.00070105       0.00350099       0.00130168
H        0.79756911      -1.20260743      -1.33713804       0.00349486      -0.00196902       0.00318006
H        2.35804066      -1.75446710      -1.19017651      -0.00693887       0.00135560       0.00192925
H       -2.79462772       2.08620455       0.42038051       0.00076601      -0.00142461      -0.00325886
H       -4.12139368       0.23470379      -0.53122260      -0.00004607      -0.00002700      -0.00023749
H       -3.09091139      -2.02334215      -0.72696698       0.00011885      -0.00199300       0.00141646
H       -0.84555341      -2.46897352       0.16763051       0.01083198       0.00134587       0.00048478
