30
Properties=species:S:1:pos:R:3:forces:R:3 /mnt/e/work/rmlp/database/CAMD/log/success_log/ts_56_1_RR-A-3-b_opt.log=T energy=-21888.997195542688 pbc="F F F"
O        0.35630024       0.75160323       2.57823282       0.00788859       0.01069516       0.00907302
C        0.59627789       0.34851888       1.39671128      -0.02042362      -0.02706558      -0.00948441
C        1.44159098      -0.71740102       1.00315946       0.00127116       0.00827371       0.01268147
C        2.14387899      -0.53250511      -0.14872237       0.01042461      -0.00873952       0.01223403
C        3.18688407      -1.52735892      -0.58315332      -0.00792548       0.00266993      -0.00741850
C        4.58931446      -0.97903265      -0.42020649       0.01955521       0.02694821      -0.01572645
O        5.00729583      -0.03318993      -1.03170282      -0.01210696      -0.01449203       0.01167941
C        1.98071692       0.65492754      -0.93868995       0.00205374       0.00402820      -0.01035523
C        1.02521608       1.58496284      -0.64490148       0.01329913       0.01063109      -0.00555520
C        0.12675091       1.36609704       0.45858504      -0.02347991      -0.00978097       0.01620968
C       -1.37904224       1.56318775       0.33611976       0.01792634       0.00729847      -0.01136863
O       -1.90667790       2.62813834       0.55592178       0.00746900      -0.00052655      -0.00353840
C       -2.19769549       0.37295210      -0.05740654       0.00788548      -0.00532542       0.01096361
C       -3.54119695       0.38495157       0.29590259      -0.00696543      -0.01007229      -0.00451906
C       -4.36458636      -0.66162127      -0.08227387       0.00166334       0.00799290       0.00314381
C       -3.84654830      -1.72879867      -0.80349965      -0.00355721      -0.00422638      -0.00381592
C       -2.50077981      -1.74894372      -1.14002396       0.00620204       0.00257145      -0.00011609
C       -1.67833147      -0.70590796      -0.76434391      -0.00547630       0.00968903       0.00298002
H        0.19417436       1.84337295       1.77183160       0.00392641       0.00631946       0.00026646
H        1.54880450      -1.59735943       1.62325198      -0.00454524       0.00147974       0.00129545
H        3.11290827      -2.44310527      -0.00011793      -0.00125659      -0.00818056      -0.00621691
H        3.05599689      -1.77684357      -1.64019307       0.00557654      -0.00458472       0.00111618
H        5.24273126      -1.51609121       0.29909135      -0.00731137      -0.00070197       0.00223976
H        2.63614138       0.79477782      -1.78987496       0.00143766       0.00024874       0.00074741
H        0.97110090       2.50144272      -1.22530887      -0.00951064      -0.00002885      -0.00083542
H       -3.91326031       1.22713593       0.86153561       0.00139523       0.00086549      -0.00092059
H       -5.41265651      -0.64563590       0.18342874      -0.00006431      -0.00004001       0.00037125
H       -4.49524680      -2.54212155      -1.10175654       0.00267807      -0.00144070       0.00068472
H       -2.08878780      -2.58223929      -1.69109183      -0.00409199      -0.00297794      -0.00051957
H       -0.63681395      -0.74970324      -1.02188446      -0.00393742      -0.00152817      -0.00529544
