13
Properties=species:S:1:pos:R:3:forces:R:3 /mnt/e/work/rmlp/database/CAMD/log/success_log/ts_52_1_RR-A-1_opt.log=T energy=-80410.016376728512 pbc="F F F"
C        2.28463657      -1.60292282      -0.17244197       0.00273669      -0.00742555       0.03061702
C        2.51761555      -0.24212779       0.08474012      -0.00074816      -0.00212336      -0.00410615
O        3.63690635       0.10498544      -0.45428562       0.00701118      -0.00445816      -0.00382006
C        1.67705582       0.77348035       0.79382031      -0.00515360      -0.01636830       0.01487386
C        0.25490883       0.84201059       0.26354707      -0.00365663       0.00813365      -0.01107168
O       -0.24168477       1.77444160      -0.28444948      -0.00449103      -0.01222801       0.00454021
O       -0.35041055      -0.34801563       0.54430577       0.00480282       0.01770662       0.00190467
Br      -2.11412758      -0.45271029       0.11929669       0.00466055      -0.00255206      -0.00118364
H        3.48700258      -1.07582841      -0.85691926      -0.00873804       0.00927481      -0.00573313
H        2.77600864      -2.28450319       0.51242043      -0.00321057       0.00380868      -0.00597024
H        1.31866403      -1.91532191      -0.54868526       0.00400287       0.00409976      -0.01277572
H        2.13617093       1.74904091       0.66447649       0.00278829       0.00321004      -0.00419022
H        1.63750361       0.51956117       1.85693470      -0.00000450      -0.00107810      -0.00308481
