24
Properties=species:S:1:pos:R:3:forces:R:3 /mnt/e/work/rmlp/database/CAMD/log/success_log/ts_785_2_R-A-7_opt.log=T energy=-16108.911983758053 pbc="F F F"
O       -1.68027630      -1.71027514       0.97252967      -0.00844267      -0.00532198      -0.01349926
C       -1.84780179      -1.15124355      -0.31470363      -0.00236171       0.00630862       0.00851122
C       -1.88084621      -2.30699830      -1.31476767       0.00684171       0.01289511       0.00420702
C       -0.77446047      -0.13543879      -0.65156614      -0.00088465       0.03162181       0.00069368
N        1.23055260      -0.51333175       0.56003268       0.00683302       0.03437400       0.00300658
O        2.64164507      -0.69082607       0.78084739      -0.00065506      -0.02236706       0.01000145
C        3.29203571       0.54912421       0.58854176       0.00470583       0.00149965      -0.00535762
C        2.90296352       1.27156492      -0.69145531       0.00510350       0.00087065      -0.00345027
C       -0.89044778       1.27384803      -0.33307725      -0.00197214      -0.02521467       0.00872624
O       -0.68318947       2.30076329      -0.94542606      -0.00379294      -0.00414562      -0.00137615
O       -1.17704961       0.96918597       0.88902017      -0.00712642      -0.00502086      -0.01165736
H       -1.58267419      -0.93806680       1.54667240       0.00776573       0.00800298       0.01173383
H       -2.80095069      -0.60580943      -0.34120264      -0.00038838      -0.00943416      -0.00454727
H       -2.03022720      -1.93151790      -2.32951507      -0.00153078      -0.00243962       0.00133381
H       -2.69858694      -2.98046169      -1.06316461      -0.00324405      -0.00166325      -0.00519168
H       -0.94903288      -2.87289534      -1.28441457      -0.00245621      -0.00541309       0.00213467
H       -0.07239229      -0.43678912      -1.43189637      -0.00179857      -0.01322359       0.00523978
H        0.81147477      -1.34267146       0.97265567      -0.00047827      -0.00148609      -0.01474208
H        3.10840099       1.18464254       1.46444649      -0.00273787      -0.00329569       0.00281700
H        4.35564445       0.29919432       0.59387039      -0.00171553       0.00138657       0.00109371
H        2.08356486       1.97313788      -0.53405711       0.00092626       0.00246042       0.00039028
H        3.75852410       1.83542648      -1.06472413      -0.00216651      -0.00012805      -0.00062769
H        2.60266316       0.56137144      -1.46115390       0.00191126       0.00131305       0.00003824
H        0.93632658       0.29813627       1.11349784       0.00766481      -0.00157940       0.00052291
