24
Properties=species:S:1:pos:R:3:forces:R:3 /mnt/e/work/rmlp/database/CAMD/log/success_log/ts_70_1_NO2-B-11-c_opt.log=T energy=-85587.692992193872 pbc="F F F"
O        0.09827848       3.13211258      -0.63779455      -0.00666137      -0.01540947      -0.00067031
N        0.33649619       1.99964712       0.15716181       0.00980468       0.02450514       0.00102949
C        1.80260515       1.76712389       0.10236011       0.00827482      -0.01016436       0.00288534
O        2.28053487       0.89571824       1.09225133      -0.01808100       0.01060900      -0.00085413
C        1.76117490      -0.37243017       1.12454477       0.00433427      -0.00110906      -0.00508866
Br       2.17690457      -1.43347067      -0.51448791      -0.00117670       0.00174928       0.00075704
N       -0.30737673       1.01860332      -0.80556958      -0.00359279      -0.01795093       0.00039351
C       -1.49478588       0.35319007      -0.34685648      -0.01366812      -0.01162046       0.00807205
C       -1.67307825      -0.98652094      -0.66714685       0.00947977       0.01055185      -0.00660013
C       -2.84363815      -1.62739291      -0.28373855      -0.00205839      -0.00055538       0.00855250
C       -3.81475415      -0.93569317       0.42666517      -0.00353496      -0.00020164      -0.00293830
C       -3.60662560       0.39493457       0.76174824      -0.00732604      -0.00492692       0.00069501
C       -2.44177442       1.04945513       0.39001117       0.01069011       0.00498423      -0.00599289
H       -0.47445151       1.96645589      -1.39754116       0.00996458       0.01075602       0.00325230
H        2.08041140       1.43631603      -0.90925214      -0.00066650       0.00426271      -0.00147888
H        2.22654444       2.74563894       0.30166987       0.00617187      -0.00064917       0.00215937
H        2.24831318      -0.91593166       1.92201389       0.00045200      -0.00207636      -0.00521118
H        0.67604788      -0.40621177       1.21800156       0.00017065       0.00209861       0.00596905
H        0.34789216       0.32970962      -1.19571519       0.00157449      -0.00146598      -0.00325689
H       -0.91286621      -1.50968500      -1.23099701      -0.00119263      -0.00331356      -0.00377989
H       -2.99741336      -2.66700173      -0.54227630       0.00001662      -0.00021315      -0.00100052
H       -4.73118691      -1.42975367       0.71824380      -0.00152200      -0.00029491       0.00158615
H       -4.36057828       0.93621563       1.31656236      -0.00034595      -0.00049090       0.00129038
H       -2.26056378       2.08146067       0.65464164      -0.00110739       0.00092483       0.00022981
