15
Properties=species:S:1:pos:R:3:forces:R:3 /mnt/e/work/rmlp/database/CAMD/log/success_log/ts_75_1_R-B-4_opt.log=T energy=-22025.401099012892 pbc="F F F"
F        1.82020768      -1.27999496      -0.37034792      -0.00588429       0.00790930      -0.00446539
C        1.56271856      -0.18781282       0.39083346       0.00469589       0.00549173      -0.01814738
C        0.83578239       1.05854836      -1.06938220       0.01935154      -0.01425058      -0.01401579
C       -0.04675522       1.90114015      -0.40777623      -0.01254763       0.00509025      -0.00490782
C       -1.11916973       1.44113257       0.36117746      -0.01530520      -0.00161523      -0.01885969
C       -1.27556473       0.12776687       0.73779766       0.01426260      -0.00328004       0.00495550
Cl      -1.54922351      -1.14271509      -0.40455188      -0.00186083       0.00150977      -0.00653480
N        0.69316121      -0.39246377       1.33743250      -0.00934780      -0.00929087       0.03475702
H        2.44881619       0.42728107       0.51895990       0.00489980      -0.00720635       0.00742652
H        1.79331659       1.46321481      -1.37578412      -0.00485250       0.00555104      -0.00116248
H        0.45024993       0.26076342      -1.69303191      -0.00811069       0.00157893       0.01152937
H        0.19497170       2.95681359      -0.36859954       0.00887279      -0.00321281       0.01543219
H       -1.77643475       2.16975864       0.82379570       0.00289604       0.00083354       0.00395662
H       -1.61117818      -0.14294332       1.72680553       0.00312045      -0.00260520       0.00072974
H        0.78341187       0.34715050       2.03401159      -0.00019020       0.01349653      -0.01069361
