41
Properties=species:S:1:pos:R:3:forces:R:3 /mnt/e/work/rmlp/database/CAMD/log/success_log/ts_75_1_S-C-13_opt.log=T energy=-23550.227117981263 pbc="F F F"
C       -2.70576197      -2.32863332       1.78804638      -0.00017619       0.00276184       0.00519943
O       -2.22972052      -1.33369343       0.87405957      -0.00301491      -0.00088263       0.00814974
C       -1.81904289      -0.33910641      -0.06219250      -0.00514865       0.00690329       0.00650513
C       -3.06810333      -0.68480523       0.08802115       0.00368261       0.02413571       0.02800500
C        0.60868267      -1.43681961       1.03762593       0.00197396       0.00626922      -0.00302339
O        0.61797552      -0.90289939       2.12066334      -0.00483215      -0.02699184       0.01543140
C       -4.21561985       0.03075108      -0.10105256       0.00021240      -0.00698942      -0.00571369
C       -3.97571018       1.36596275      -0.43058795       0.00061405       0.00057972       0.00434437
C       -2.65082426       1.89464346      -0.51104585      -0.00377208      -0.00674689      -0.03334608
C       -2.55622403       3.38866002      -0.71161010       0.00040232       0.00045633       0.00435543
C       -1.55518819       1.05718342      -0.39353707       0.00997148      -0.01026478      -0.01768990
C       -0.14493491       1.47196758      -0.53786263       0.00001264       0.00154862       0.00496680
N        1.46209324      -1.21352716      -0.00689301      -0.00605765       0.02707237       0.00640357
C        1.17017696      -1.91825495      -1.24140383       0.00903863      -0.00808227       0.00200474
C        2.58796115      -0.34854022       0.02817806       0.00660243      -0.00434427       0.00069451
C        3.16844575       0.06815582       1.22503045      -0.00025316      -0.00117765      -0.00048210
C        4.36348879       0.76939336       1.20352240       0.00014126       0.00324002       0.00101079
C        4.98272461       1.09885452       0.00678022      -0.00062123      -0.00268989      -0.00101865
C        4.36643419       0.74675280      -1.18383974       0.00040387       0.00219691      -0.00046168
C        3.16671562       0.05056506      -1.17718936      -0.00259441       0.00303414       0.00027537
H       -3.77837438      -2.20238577       1.85978359      -0.00012197      -0.00113612      -0.00332928
H       -2.21325579      -2.16393857       2.74174123      -0.00155374       0.00148153       0.00006728
H       -2.43351806      -3.29721528       1.38624542       0.00272910       0.00056688       0.00138557
H       -0.07072502      -2.26163486       0.78152387      -0.00165173       0.01268548      -0.03200958
H       -5.21493265      -0.36618129      -0.02981643      -0.00017297       0.00062443       0.00171543
H       -4.79852745       2.05581397      -0.59507246       0.00013047      -0.00122964      -0.00485506
H       -2.69677813       3.66083547      -1.76185286       0.00198809      -0.00016458      -0.00034106
H       -3.34190476       3.88869770      -0.14519294      -0.00098440       0.00069317      -0.00215684
H       -1.60318159       3.78911065      -0.37568607      -0.00146675       0.00054447       0.00313920
H       -0.02189223       2.45967230      -0.97738754       0.00032932       0.00863743       0.01982673
H        0.36902986       0.76061315      -1.18104364      -0.00408705       0.01099002      -0.01709640
H        0.38599909       1.44197160       0.41886365       0.00386863      -0.01947042      -0.00359243
H       -2.41585651      -0.91510774      -1.17159166      -0.00746185      -0.01195019       0.00996768
H        0.64065995      -2.84056470      -1.00697815       0.00356847      -0.00274920       0.00084633
H        2.09902629      -2.18283103      -1.74681268      -0.00032474       0.00385298      -0.00181565
H        0.54073356      -1.33485036      -1.92144783      -0.00495997      -0.00301382       0.00263153
H        2.68682172      -0.15419134       2.16534859       0.00253519      -0.00567181      -0.00002497
H        4.81646566       1.05169462       2.14437531      -0.00075218       0.00027777       0.00002241
H        5.92552841       1.62825110       0.00360028      -0.00028858      -0.00012982      -0.00005123
H        4.82372529       1.00131639      -2.13078607      -0.00176644       0.00340798       0.00045592
H        2.67475836      -0.16947614      -2.11715647       0.00385854      -0.00827440      -0.00039703
