21
Properties=species:S:1:pos:R:3:forces:R:3 /mnt/e/work/rmlp/database/CAMD/log/success_log/ts_86_1_NO2-A-5-b_opt.log=T energy=-83949.332815150861 pbc="F F F"
O       -0.12740731       2.29961677       0.71612289      -0.01513542      -0.00150138      -0.00389643
N        0.83150200       1.57771263       1.12131101       0.01956795      -0.00769430      -0.00795478
C        0.54323173       0.30819456       0.66181219      -0.02043878      -0.01288080      -0.00068769
C       -0.63669678      -0.37648994       1.35255588      -0.03266725       0.01208940      -0.00731182
N       -1.42392525      -1.09744525       0.35329525       0.01642174       0.00963878       0.01287006
Br      -2.58084048       0.09529435      -0.58307579       0.00331911       0.00239322      -0.00082436
C        1.68171282      -0.61938920       0.35943633      -0.00454676      -0.00516486      -0.01022738
O        1.62165954      -1.76626169       0.77402649       0.00419623       0.00262475       0.00131500
N        2.71416597      -0.15650675      -0.37284918      -0.00385869      -0.00111578       0.01975140
C        2.79647498       1.17622343      -0.94267973       0.00001878       0.00803268      -0.01880807
C        3.83821086      -1.03724885      -0.62583348       0.00371563       0.00559878      -0.00078908
H       -0.43486105       1.19259775       0.00442781       0.01423639       0.00615844       0.01009643
H       -1.19938415       0.39376479       1.87987141       0.00644449      -0.01028240      -0.00762153
H       -0.26584851      -1.12619786       2.05332564       0.00463919      -0.00479129      -0.00342396
H       -2.08297790      -1.71121163       0.81639677       0.00075100      -0.00006029       0.00677957
H        2.97826109       1.09597932      -2.01486521      -0.00396483      -0.00158833       0.00348610
H        3.62462975       1.72333262      -0.48926934       0.00067295      -0.00513447       0.00182179
H        1.87972045       1.72705060      -0.77674723       0.00221184       0.00588779       0.00620529
H        3.62788293      -2.01580909      -0.20900327       0.00038233       0.00030804       0.00001663
H        4.00463816      -1.12218155      -1.70052183       0.00318120      -0.00223249       0.00102982
H        4.74238115      -0.62989501      -0.16961661       0.00085282      -0.00028454      -0.00182694
