22
Properties=species:S:1:pos:R:3:forces:R:3 /mnt/e/work/rmlp/database/CAMD/log/success_log/ts_86_1_NO2-B-8-d_opt.log=T energy=-94321.703126523629 pbc="F F F"
C       -3.10656062      -0.81581290      -1.21890491       0.01755995      -0.01311421       0.01161623
N       -3.00393763       0.26051197      -0.35813916      -0.00262302      -0.00384285      -0.01141599
C       -2.41797999       0.00404364       0.94595445       0.00316298       0.00003022       0.02406907
S       -0.66265252      -0.29948177       0.69879385       0.00946546       0.00460887      -0.00254455
O       -0.53037815      -1.48336824      -0.11092503      -0.00773710      -0.00134635       0.00371826
O       -0.01575121      -0.24975497       1.98835444       0.00239480       0.00265417      -0.00481009
C       -0.12966131       1.18890769      -0.25270868       0.00782758       0.01789162      -0.00274578
N        1.10195463       1.73234585       0.22955266      -0.01077700      -0.00934851       0.00736320
C        2.23927313       1.53218144      -0.57405489      -0.00188130       0.00530434      -0.00515318
Br       2.57559008      -0.36959437      -1.09980846      -0.00119075      -0.00728160       0.00586301
O       -4.71612964       0.29817096       0.01102253       0.00155193      -0.00616902       0.00498730
H       -2.98464410      -0.54224599      -2.26103358      -0.02207206      -0.00360162      -0.00669158
H       -2.68390910      -1.76657907      -0.90495980       0.00765464       0.00423700       0.00215504
H       -2.81290083      -0.88598057       1.44162492      -0.00640066      -0.00325886      -0.01283206
H       -2.50288210       0.87533308       1.59475135       0.00293919      -0.00326546       0.00344652
H       -0.04594023       0.86391721      -1.28928001      -0.00409505      -0.00644530       0.00151549
H       -0.93777531       1.91606933      -0.16289112       0.00553921       0.00363488      -0.00174439
H        1.27174579       1.52162877       1.20657489       0.00361395      -0.00390324      -0.00488536
H        2.13621811       2.04005911      -1.52573381      -0.00348531       0.00539625       0.00136238
H        3.14323680       1.84719539      -0.06679451      -0.00253123       0.00008067       0.00232911
H       -4.42319715      -0.60611546      -0.83040214      -0.00647092       0.01749131      -0.01114897
H       -4.92378864       1.07917890      -0.52404301       0.00755461       0.00024796      -0.00445369
