27
Properties=species:S:1:pos:R:3:forces:R:3 /mnt/e/work/rmlp/database/CAMD/log/success_log/ts_96_1_R-B-13_opt.log=T energy=-12674.446126421955 pbc="F F F"
C        2.29500811      -1.58981172       1.18352742       0.00145996      -0.00978775       0.00367743
C        1.79442985      -1.28396926      -0.20441508       0.01044929       0.00425470      -0.00815856
C        2.28610124      -0.26047451      -0.98785316      -0.00560735      -0.01101688       0.00624891
C        2.25898463       1.09450277      -0.59421901       0.00275061       0.00615808      -0.00508262
C        1.45241822       1.59646330       0.39844859       0.00373332       0.01361072      -0.00638592
C        0.41414115       0.84442822       0.98761215      -0.02251545      -0.00978252       0.01572991
C       -0.08512691      -0.30109632       0.39382858      -0.01835597       0.02015626      -0.00586298
C       -0.73292962      -0.32477400      -0.98412379       0.00805104       0.00538455       0.00172460
O       -2.15056218      -0.40106222      -0.92458593       0.00162247      -0.00736851      -0.00160217
C       -2.66980091       0.39094576       0.13261022       0.00197411       0.00584681      -0.00484841
C       -4.16960672       0.42826654       0.01963550       0.00230253       0.00186640       0.00200963
H        1.63533789      -2.27404094       1.71277573      -0.00211963       0.00468333       0.00433511
H        3.27605770      -2.06787447       1.11306891      -0.00405505      -0.00384590      -0.00081937
H        2.42833812      -0.69537856       1.78883909       0.00277165      -0.00125283      -0.00284880
H        1.31099324      -2.12235108      -0.69816587      -0.00358236       0.00460696      -0.00119796
H        2.61557204      -0.48960684      -1.99640958       0.00999204      -0.00049623       0.00308380
H        2.88891977       1.79362688      -1.13230496      -0.01059577      -0.00161615      -0.00474975
H        1.63498953       2.59995986       0.75877976       0.00158053       0.00124598      -0.00110611
H        0.03049647       1.15873964       1.95436354       0.00532680      -0.00919601       0.00158235
H       -0.40818920      -1.12745796       1.02596390       0.00686997      -0.00501341       0.00150344
H       -0.43357026       0.57637505      -1.52941938       0.00000460      -0.00104973       0.00007151
H       -0.41145518      -1.18184948      -1.56437626      -0.00374649      -0.00175212       0.00227759
H       -2.25195301       1.40532050       0.08734250       0.00492567      -0.00250223      -0.00030014
H       -2.36785323      -0.03463260       1.09822918       0.00259957      -0.00009868       0.00210589
H       -4.58388622      -0.57864651       0.07425107      -0.00023389       0.00033283      -0.00134763
H       -4.58258343       1.01735314       0.83992574       0.00495553      -0.00259501      -0.00166354
H       -4.47764107       0.88151481      -0.92361885      -0.00055782      -0.00077254       0.00162429
