28

C          -1.71330000      0.60850000      0.97230000
C          -0.33700000      1.59150000     -0.34140000
C           0.86668907      1.18584633      0.20451939
C           1.33680000     -0.09410000     -0.02050000
C           2.58766376     -0.65342811      0.60782539
N           2.49949858     -2.01332483      1.10779044
C           2.24131747     -3.02517896      0.10160759
C          -2.94797994      1.05539090      0.45429248
C          -3.58456169      0.33965224     -0.51773188
C          -3.06090943     -0.89922835     -0.93096016
C          -1.91350120     -1.39896914     -0.38760599
C          -1.20308341     -0.68728971      0.62469371
O          -0.08510000     -1.08210000      1.08710000
H          -1.31342935      1.08029653      1.85908050
H          -0.69376945      1.12837168     -1.24764564
H          -0.69052727      2.59477909     -0.16597241
H           1.29777491      1.75588587      1.01669713
H           0.99293134     -0.61214564     -0.90687504
H           2.88784826     -0.02427861      1.45026105
H           3.38672933     -0.63113421     -0.14560481
H           1.74705052     -2.04353531      1.78980406
H           3.02342627     -2.98409103     -0.65776677
H           1.26533031     -2.92777403     -0.38980224
H           2.27874080     -4.00034754      0.58653637
H          -3.35144361      1.99636169      0.80116657
H          -4.50149405      0.70307240     -0.95731767
H          -3.58796304     -1.45991785     -1.69028179
H          -1.53139094     -2.36359386     -0.68987253


