28
Properties=species:S:1:pos:R:3:forces:R:3 #Cluster:1=T energy=-15185.216338693326 pbc="F F F"
C       -1.64930096       0.64060131       1.05005508      -0.00515498       0.00166663       0.00104815
C       -0.40540861       1.52904107      -0.40336908       0.00397657      -0.01201644      -0.02619675
C        0.86010972       1.20257984       0.06959694       0.01032983       0.00772498       0.01057405
C        1.32751211      -0.08150334      -0.09537915      -0.00939842      -0.00583011      -0.00830046
C        2.57623298      -0.59125823       0.54553087      -0.00467744      -0.01551483       0.00122972
N        2.73708210      -0.03955727       1.87681099       0.00484562      -0.01196503       0.00093558
C        3.93339666      -0.52754266       2.53879735      -0.00381417       0.00191906      -0.00489370
C       -2.95430337       1.00996691       0.61047828      -0.00213203      -0.00346354      -0.00577289
C       -3.63892141       0.21841099      -0.25844112      -0.00104835      -0.00101626       0.00531233
C       -3.08422992      -1.02254533      -0.66832260       0.00589447       0.00222579       0.00139762
C       -1.88383762      -1.45080958      -0.18678023      -0.00361951       0.00670223       0.00072379
C       -1.14355327      -0.66331012       0.75562890      -0.00075253       0.00261516      -0.00264048
O        0.00587273      -1.02248993       1.16640284       0.00994903      -0.00460333       0.00145279
H       -1.19590872       1.17372483       1.87396551       0.00050993      -0.00624069       0.00747977
H       -0.82891323       0.98581238      -1.24144618      -0.00687249       0.00583614       0.00490693
H       -0.79356667       2.53010909      -0.27103687       0.00250414       0.00027968       0.00192738
H        1.32833313       1.82261205       0.82426426      -0.00081626      -0.00167569      -0.00143948
H        0.94343388      -0.66906597      -0.92160075      -0.00253016       0.00505749       0.00533430
H        3.43376083      -0.29400004      -0.07039746      -0.00018618       0.01086328       0.00381971
H        2.54809331      -1.69074768       0.53832697       0.00377434       0.00538999       0.00233508
H        1.91023739      -0.29377653       2.40579829       0.00068926       0.00997780       0.00045120
H        4.81654194      -0.16795753       2.00625902       0.00058597       0.00058869       0.00313502
H        3.99673745      -1.62477160       2.58745020      -0.00009172       0.00296887      -0.00189542
H        3.97685774      -0.13490919       3.55411916      -0.00222768      -0.00255076      -0.00101123
H       -3.37504083       1.95091848       0.94353358       0.00186725       0.00175556       0.00262242
H       -4.61198089       0.51674979      -0.62523524      -0.00109191      -0.00121686      -0.00477801
H       -3.63684646      -1.64173093      -1.36463173      -0.00316168       0.00093934      -0.00023062
H       -1.46860869      -2.41014964      -0.46965692       0.00264901      -0.00041716       0.00247329
