23
Properties=species:S:1:pos:R:3:forces:R:3 charge=0 spin=1 energy=-13051.701171875 stress="1.4102621292977346e-09 -1.067061994319829e-09 1.4848568208325474e-10 -1.067061994319829e-09 -2.0186232685404093e-09 1.8642112298294933e-09 1.4848568208325474e-10 1.8642112298294933e-09 3.159095207649898e-09" free_energy=-13051.701171875 pbc="F F F"
C       -1.34005721      -0.80180897       0.30204898      -0.00070542       0.00079614      -0.00037318
C       -2.76548903      -0.76937796      -0.15101545      -0.00104988      -0.00028890      -0.00013596
C       -0.27774495      -0.57421515      -0.62331082       0.00029562      -0.00013831       0.00062943
C        1.06297553      -1.15303268      -0.46759684       0.00031358       0.00035024      -0.00030613
C        1.36374245      -2.04918827       0.71625927      -0.00083552       0.00011250      -0.00017256
O        1.92719052      -0.93075396      -1.29555829       0.00116718       0.00061834       0.00033092
C       -0.67495043       1.09347131       0.18518622      -0.00019073      -0.00024235      -0.00005096
O       -1.32587276       1.81839200      -0.53921834       0.00212595       0.00010520      -0.00072318
C        0.59193533       1.44899244       0.96647355      -0.00044948      -0.00052094      -0.00026408
N        1.64146496       1.97401192       0.13614127      -0.00120762       0.00087471       0.00045878
H       -1.34595900       0.46554218       1.06890250      -0.00000969       0.00044536       0.00001323
H       -1.11432066      -1.37611913       1.19696262      -0.00039087       0.00072246      -0.00104813
H       -2.93260104       0.15088353      -0.71603844       0.00039592      -0.00046553      -0.00007175
H       -2.94281160      -1.61619695      -0.81624627       0.00068006      -0.00038016       0.00037388
H       -3.46253014      -0.82237001       0.68326410      -0.00063743      -0.00067752       0.00026815
H       -0.52925630      -0.30910105      -1.64186406      -0.00063496       0.00104317       0.00191757
H        0.80788491      -2.98481104       0.61814208       0.00116085      -0.00066629       0.00086907
H        1.07285752      -1.60047827       1.66760426       0.00117935      -0.00095631       0.00085469
H        2.42829266      -2.26603121       0.72861191      -0.00174005      -0.00076146      -0.00097810
H        0.93701704       0.58470192       1.53073717       0.00041667      -0.00078657      -0.00055861
H        0.28129184       2.21253337       1.68453669       0.00118768       0.00044186      -0.00154729
H        1.97230221       1.27845805      -0.52304185      -0.00118124       0.00087276       0.00000852
H        1.29890815       2.76559790      -0.39254024       0.00010987      -0.00049841       0.00050563
