13
Properties=species:S:1:pos:R:3:forces:R:3 charge=0 spin=1 energy=-20301.8125 stress="8.909281645763656e-10 2.428947265542547e-09 1.200642141263586e-09 2.428947265542547e-09 -3.0069420287048843e-09 -1.337797206346636e-09 1.200642141263586e-09 -1.337797206346636e-09 -2.653016972775646e-10" free_energy=-20301.8125 pbc="F F F"
N        2.69176354      -1.37678663      -0.21145398       0.00093353      -0.00021353      -0.00019476
C        1.66857127      -0.93564211       0.06843329      -0.00011247      -0.00079939      -0.00047448
C        0.44880597      -0.41775937       0.59538186      -0.00011820      -0.00064182      -0.00053415
C        0.40445075       0.99488287       1.10632804      -0.00040030      -0.00017914       0.00010633
C        0.24658460       1.74064056      -0.22113799      -0.00078544       0.00044546       0.00022250
O        0.19130047       0.66011625      -1.17791410      -0.00051814       0.00023240       0.00049618
Cl      -2.12944338      -0.51273737      -0.12113919       0.00087498       0.00061826       0.00055334
H       -0.21359585      -1.16962766       0.99766850      -0.00000235      -0.00050905      -0.00027059
H       -0.45007462       1.10925630       1.76656002      -0.00004901       0.00162511      -0.00002281
H        1.32981284       1.22567584       1.63869985      -0.00059882      -0.00008345       0.00067698
H        1.09777048       2.36383422      -0.47898401       0.00008829       0.00027379      -0.00025755
H       -0.66932334       2.32569524      -0.25537201       0.00036714      -0.00017077      -0.00003222
H       -0.75394273       0.34208184      -1.19760026       0.00032093      -0.00059770      -0.00026894
