19
Properties=species:S:1:pos:R:3:forces:R:3 charge=0 spin=1 energy=-17950.767578125 stress="-1.9035106824105696e-09 -4.25231516665292e-10 6.086720572007209e-10 -4.25231516665292e-10 1.4894031563628118e-09 8.243171423227835e-11 6.086720572007209e-10 8.243171423227835e-11 -5.648977952077416e-10" free_energy=-17950.767578125 pbc="F F F"
C       -2.61449945      -0.28078731       1.44675353      -0.00055040       0.00039633       0.00026450
C       -2.56985486       0.16521961       0.00836280      -0.00016904      -0.00050491       0.00020564
O       -3.52884272       0.63109231      -0.56073493       0.00009781      -0.00089297      -0.00013268
C       -1.29270603       0.00313476      -0.73761569      -0.00013238       0.00000274      -0.00040039
N       -0.15271959      -0.30297376      -0.02226545      -0.00034655       0.00039732       0.00025201
C        1.06987253       0.24717237      -0.53749639      -0.00008211       0.00016963       0.00052932
C        1.12147194       1.67806653      -0.22817005       0.00025786       0.00025523      -0.00053763
N        1.12830888       2.80141350      -0.00275212       0.00001785      -0.00107500       0.00001900
N        2.28130388      -0.42646245       0.12547747      -0.00121427       0.00058115       0.00098479
O        3.33852101      -0.13760084      -0.37856751       0.00186485      -0.00001957      -0.00138433
O        2.08735764      -1.16825679       1.05070446      -0.00051995      -0.00070404       0.00027388
O        0.00711452      -1.90821094      -0.73714685       0.00066406       0.00007358      -0.00016973
H       -3.65217490      -0.32140560       1.76644813      -0.00072279       0.00039059       0.00073522
H       -2.07259410       0.43750161       2.06559863       0.00069869      -0.00054140      -0.00013255
H       -2.13250116      -1.24806168       1.58868900       0.00055407       0.00073943      -0.00052098
H       -1.20279965       0.59223635      -1.64987930      -0.00037768       0.00021052      -0.00029403
H        1.21939475       0.08650911      -1.60691302       0.00036427       0.00060689       0.00076678
H       -1.08798940      -1.34163726      -1.06313207       0.00008813      -0.00014497      -0.00041135
H       -0.02656330      -2.56483951      -0.02102067      -0.00049238       0.00005943      -0.00004740
