19
Properties=species:S:1:pos:R:3:forces:R:3 charge=0 spin=1 energy=-18500.04296875 stress="5.708614570637538e-12 -1.734860255453441e-09 -1.1573831892874864e-09 -1.734860255453441e-09 1.0832765795498744e-09 -2.055342701590135e-10 -1.1573831892874864e-09 -2.055342701590135e-10 -1.2049176101314174e-09" free_energy=-18500.04296875 pbc="F F F"
C        2.03134816       1.99970691      -0.50480859      -0.00025612       0.00007936      -0.00011189
N        1.09337463       1.37724615       0.42124622      -0.00053954       0.00073372       0.00009313
C        0.64724894       0.08678424      -0.00758328      -0.00022268      -0.00005086       0.00078744
O       -0.44137311      -0.32622824       0.75621459       0.00033331       0.00000131       0.00044483
N       -2.09182997       0.63137215       0.12614853      -0.00112867       0.00031340       0.00134023
O       -2.72534317       0.75154739       1.09047332       0.00117828      -0.00067991      -0.00000259
O       -1.78159905       1.19914862      -0.83186311      -0.00014064       0.00084850      -0.00149924
C        1.71384820      -1.01054239       0.13220676      -0.00107968      -0.00027865       0.00049686
O        2.72438907      -0.90695038       0.77100912       0.00061810      -0.00022582      -0.00048292
O        1.36906083      -2.12226810      -0.53831616       0.00065912       0.00181094      -0.00014889
O       -2.21997492      -1.19951264      -0.44034845       0.00019675      -0.00037712      -0.00027558
H        2.32565874       2.97211126      -0.11472213       0.00080448      -0.00036839       0.00099678
H        2.93877147       1.40906727      -0.67714628      -0.00005721       0.00073728      -0.00097629
H        1.53428088       2.16465373      -1.46205907      -0.00026099      -0.00148452      -0.00029814
H        1.51749382       1.28422007       1.33743582       0.00044802       0.00028892      -0.00003803
H        0.37878856       0.15336925      -1.07306055       0.00053798      -0.00030884       0.00026011
H        2.05782364      -2.78166982      -0.36792230      -0.00087251      -0.00042754       0.00050598
H       -2.86095617      -1.63908618       0.13299302      -0.00062343      -0.00053522      -0.00034662
H       -1.18875055      -1.06918930       0.15546256       0.00040535      -0.00007674      -0.00074577
