29
Properties=species:S:1:pos:R:3:forces:R:3 charge=0 spin=1 energy=-22874.234375 stress="2.9459126249520295e-09 -4.738919257007979e-10 -1.0942526884605286e-09 -4.738919257007979e-10 -2.0120258792388768e-09 7.214326358528922e-10 -1.0942526884605286e-09 7.214326358528922e-10 -4.142471365931044e-10" free_energy=-22874.234375 pbc="F F F"
C       -0.73312355       1.09444134       1.35978377       0.00090571      -0.00025584      -0.00031973
C       -0.55125490      -1.02306723       0.96295265      -0.00044769      -0.00072241      -0.00017250
C       -1.88555066      -1.37781750       0.75795387      -0.00026136      -0.00129796       0.00035185
C       -2.58992478      -1.06445150      -0.38007540      -0.00024688      -0.00001797       0.00050579
C       -4.05012326      -1.30743897      -0.51707463       0.00017032      -0.00017108      -0.00019617
C        0.44009612      -1.01133391      -0.13274394       0.00016510       0.00099725       0.00083089
O        0.25512480      -0.98034671      -1.30742726      -0.00015980       0.00081292       0.00056970
O        1.71915602      -1.14960148       0.42279668       0.00004111      -0.00045058       0.00035129
C        2.83211688      -0.78558559      -0.30117613      -0.00062642      -0.00056547      -0.00081229
O        2.88180632       0.00124822      -1.18314966      -0.00163219      -0.00024864      -0.00057074
O        3.89338898      -1.43093589       0.19585461      -0.00002363       0.00034779       0.00109717
C        0.59359170       1.57346125       1.55009648       0.00007170       0.00137475       0.00021701
C        1.27831277       2.11445207       0.50810671      -0.00031929       0.00044066      -0.00010234
C        0.64854352       2.26375729      -0.75846996      -0.00015569       0.00082876      -0.00067848
C       -0.64881798       1.90875012      -0.94553316      -0.00018877      -0.00023723       0.00023314
C       -1.42843140       1.37276646       0.13503852       0.00032699      -0.00031032       0.00005570
O       -2.63194075       1.02177882      -0.00617717      -0.00009167       0.00006878       0.00015418
H       -1.34595517       0.87533530       2.22315928       0.00094992       0.00066350      -0.00048843
H       -0.11290278      -1.23410453       1.92809326       0.00038046      -0.00057409      -0.00049698
H       -2.45177245      -1.65582794       1.64132027      -0.00106803      -0.00095038       0.00042745
H       -2.04308856      -0.84135630      -1.28435579      -0.00053246       0.00067228       0.00088391
H       -4.22920303      -2.17847311      -1.15196907       0.00052264       0.00077137      -0.00024542
H       -4.51896093      -0.44743513      -0.99374184       0.00022099      -0.00114919      -0.00076423
H       -4.52048643      -1.47449094       0.45144171       0.00105201       0.00017671      -0.00089340
H        3.59769138      -2.03382699       0.88999445       0.00008890      -0.00093357      -0.00025718
H        1.05923195       1.46667056       2.52163852       0.00070865       0.00048536       0.00076142
H        2.30523725       2.43218902       0.62836479      -0.00049868      -0.00022824       0.00037674
H        1.22751676       2.65676519      -1.58361788       0.00001186      -0.00008941      -0.00110431
H       -1.14010782       2.02696808      -1.90248368       0.00063653       0.00056231       0.00028613
