25
Properties=species:S:1:pos:R:3:forces:R:3 charge=0 spin=1 energy=-18178.53515625 stress="1.5363542382740292e-10 3.6143030235358253e-10 2.4679150389950166e-10 3.6143030235358253e-10 -2.2756084516739605e-10 3.2744859601585574e-10 2.4679150389950166e-10 3.2744859601585574e-10 -1.829890822202529e-10" free_energy=-18178.53515625 pbc="F F F"
C       -0.56273058       1.56326204      -0.07105402      -0.00033069       0.00037038      -0.00004980
N       -1.40404535       0.47422476       0.28938538      -0.00098450       0.00034368      -0.00088358
C       -2.58583537       0.28720158      -0.51388256       0.00114264      -0.00048909       0.00018837
C       -3.58229934      -0.57832322       0.20997300      -0.00033218       0.00144541      -0.00085008
O       -3.53406397      -0.86569576       1.37551438       0.00015587      -0.00125588       0.00165597
O       -4.57381016      -0.98403441      -0.60489368      -0.00062490      -0.00136837      -0.00016236
C        0.86686327       1.49355097      -0.00268472       0.00000703       0.00053158      -0.00118317
O        1.29198809       2.69405476       0.17626184       0.00011232       0.00028872       0.00065967
C        1.79565501       0.36726426      -0.05218604       0.00028066      -0.00012887      -0.00095687
C        1.36210600      -0.89775069      -0.44856945      -0.00033725      -0.00007998       0.00050738
C        2.26694080      -1.94308897      -0.51604252       0.00104003      -0.00001317       0.00092511
C        3.59860616      -1.73223122      -0.18313709       0.00006010       0.00032333      -0.00073013
C        4.03176376      -0.47583633       0.22131964       0.00112844      -0.00007476       0.00024624
C        3.13236676       0.57335759       0.28857450      -0.00107308      -0.00048283       0.00101365
H        0.04412933       2.85059892       0.36622823      -0.00008744      -0.00043645      -0.00021124
H       -0.85427196       2.08636151      -0.98440699       0.00023976       0.00032943       0.00026923
H       -1.64351981       0.45849856       1.27276930       0.00032475       0.00019065       0.00010026
H       -3.10722767       1.22649917      -0.75746665      -0.00022393      -0.00001603       0.00040147
H       -2.35080946      -0.18945715      -1.47043658       0.00056363       0.00049908      -0.00023645
H       -5.18278838      -1.50689137      -0.06274348       0.00016841       0.00045545      -0.00016755
H        0.31795901      -1.04742179      -0.68460511      -0.00011379       0.00055316      -0.00049165
H        1.93369854      -2.92503062      -0.82442243       0.00006126       0.00024274       0.00055765
H        4.30264220      -2.55292376      -0.23560887      -0.00044948      -0.00073580       0.00009593
H        5.06841140      -0.31857254       0.48779151      -0.00027506       0.00006365      -0.00088156
H        3.44743174       1.55924370       0.60297241      -0.00045228      -0.00055572       0.00018327
