27
Properties=species:S:1:pos:R:3:forces:R:3 charge=0 spin=1 energy=-32532.451171875 stress="-9.46242639798811e-10 6.836141652755146e-10 1.1337517591414326e-09 6.836141652755146e-10 2.9831209724662244e-10 -8.597493550421831e-11 1.1337517591414326e-09 -8.597493550421831e-11 -2.462731407693042e-10" free_energy=-32532.451171875 pbc="F F F"
N       -1.37172278       3.11301490      -0.85446893      -0.00061873      -0.00141355       0.00021449
C       -1.69712282       2.07907945      -0.46983739       0.00066893       0.00190771       0.00021052
C       -2.05973976       0.79795017       0.08020580      -0.00073197      -0.00068161      -0.00013374
N       -1.06551996       0.27492503       0.94760586      -0.00039142      -0.00038678       0.00068456
C       -0.60692102      -1.09362277       0.87357598       0.00008374       0.00001398       0.00000834
S        0.28964583      -1.29724914      -0.72934968      -0.00012100       0.00041413      -0.00054923
O        0.68912623      -2.72218484      -0.70222841       0.00105917      -0.00126207       0.00046635
C        1.72984097      -0.32406833      -0.29519564      -0.00026256       0.00069165      -0.00055686
C        2.81423561      -0.97406620       0.27063265      -0.00065104       0.00119609      -0.00067137
C        3.94516439      -0.23688916       0.58739134       0.00005028       0.00011233       0.00105489
C        3.97830511       1.12792728       0.33320412      -0.00011113       0.00004289       0.00024664
C        2.88869699       1.76207287      -0.24859863       0.00152451      -0.00059834       0.00001778
C        1.75425845       1.03370289      -0.57534636       0.00086087      -0.00016196       0.00066995
C       -3.00438691       0.00644814      -0.73341186      -0.00047839      -0.00066355       0.00052178
O       -3.56212896       0.41525369      -1.71397209      -0.00007805       0.00078645      -0.00177360
O       -3.24531777      -1.22280114      -0.21212707       0.00065764       0.00007817      -0.00009902
O       -1.94985494       0.37219062       2.30250930       0.00005305       0.00067584       0.00124434
H        0.11239408      -1.28051626       1.66825033       0.00027887       0.00008649       0.00030907
H       -1.38813680      -1.84918728       0.85297810      -0.00072732       0.00051810       0.00042363
H        2.76256151      -2.04359383       0.43294924       0.00065746      -0.00010183      -0.00035889
H        4.80344064      -0.72800056       1.02698687      -0.00062153      -0.00126414      -0.00081286
H        4.86345222       1.69935259       0.58082451       0.00012283       0.00115308      -0.00161319
H        2.92179047       2.82325615      -0.45631029      -0.00047415      -0.00029686       0.00058460
H        0.90528472       1.52110984      -1.03836120       0.00027958      -0.00080008       0.00047847
H       -3.88963692      -1.64103660      -0.80255060       0.00051454       0.00044563       0.00026743
H       -2.61219903       0.88652553       1.46414064      -0.00032505       0.00019524       0.00039166
H       -1.49435958       1.04474695       2.83752339      -0.00121917      -0.00068645      -0.00122597
