22
Properties=species:S:1:pos:R:3:forces:R:3 charge=0 spin=1 energy=-22291.181640625 stress="1.11233766642016e-09 -1.3583777436210198e-09 3.1508345932351745e-10 -1.3583777436210198e-09 -8.347939006725369e-10 3.690565075764596e-10 3.1508345932351745e-10 3.690565075764596e-10 -3.5303826528831905e-10" free_energy=-22291.181640625 pbc="F F F"
C       -0.04029355      -2.68141771      -0.36146134      -0.00115006      -0.00019924       0.00044591
C        0.60763098      -1.32801488      -0.29727808       0.00002879      -0.00026762      -0.00022637
C        1.94952752      -1.17953436       0.01095903       0.00088698      -0.00030127      -0.00110555
C        2.54673534       0.07859314       0.05567407      -0.00024630       0.00065619      -0.00053978
C        3.94010945       0.19900331       0.38110289      -0.00030702      -0.00021028      -0.00060226
N        5.05559867       0.29269361       0.64230651      -0.00051740      -0.00057657       0.00096528
C        1.79832978       1.22284043      -0.21203786      -0.00004786       0.00165592      -0.00017367
C        0.47011030       1.06398781      -0.51752667       0.00005760      -0.00031051      -0.00010043
F       -0.28741176       2.15188019      -0.75263320       0.00023638      -0.00031126       0.00061087
C       -0.15952823      -0.18391037      -0.57803375      -0.00035352      -0.00072585       0.00027636
O       -1.44375237      -0.23708506      -0.89905077      -0.00091836       0.00004175       0.00047577
N       -2.70323598       0.62432622       0.61885373       0.00146717      -0.00115371       0.00006413
O       -3.53930388       1.13099535       0.00797105       0.00010091       0.00007302      -0.00060534
O       -1.97917493       0.75428365       1.50194667      -0.00158119      -0.00010207       0.00058463
O       -2.97673436      -1.28860840       0.51611828      -0.00004920      -0.00043166       0.00086713
H       -0.76821293      -2.81131828       0.44172984      -0.00155691       0.00018270       0.00080287
H        0.70416989      -3.47009495      -0.27317927      -0.00188307       0.00076012       0.00131445
H       -0.57098472      -2.81042939      -1.30568088       0.00074732       0.00023039      -0.00123340
H        2.54977469      -2.05527618       0.21971766       0.00108837      -0.00097439      -0.00045016
H        2.23636313       2.20989928      -0.17910743       0.00127463       0.00198022      -0.00052320
H       -3.81618017      -1.45893236       0.06824659       0.00204688      -0.00085199      -0.00108927
H       -2.18246689      -1.06890106      -0.27404708       0.00067592       0.00083606       0.00024175
