25
Properties=species:S:1:pos:R:3:forces:R:3 charge=0 spin=1 energy=-31692.9921875 stress="1.0171691267046867e-09 -2.92337300200618e-11 8.704046372542962e-10 -2.92337300200618e-11 -4.274872122955742e-10 1.5307832779143382e-10 8.704046372542962e-10 1.5307832779143382e-10 -1.1931879095872233e-10" free_energy=-31692.9921875 pbc="F F F"
O       -3.11495083       1.98908001      -1.36013841       0.00064886       0.00106132       0.00012353
N       -2.05479164       1.69053453      -1.29071149       0.00056607      -0.00027966      -0.00025998
C       -1.47319947       0.41271474       0.81075928      -0.00027851      -0.00042397       0.00008327
C       -2.48972265      -0.44873267       1.48637966       0.00043684      -0.00077762       0.00103861
Cl      -4.08214375      -0.45682031       0.56845475      -0.00031771      -0.00003593      -0.00058261
C       -0.11139915      -0.12078149       0.81146977      -0.00003099       0.00101292       0.00092916
O        0.22757868      -1.26015991       1.00603393       0.00065094      -0.00175846      -0.00001366
O        0.77780276       0.86597850       0.44513972      -0.00026184      -0.00016752       0.00146420
C        2.08182090       0.46926721       0.16815456      -0.00023139       0.00036974      -0.00025560
C        2.35175159      -0.26236689      -0.97535454      -0.00023402       0.00071917      -0.00046846
C        3.66592274      -0.59044413      -1.26686777      -0.00009571      -0.00005452       0.00046508
C        4.69349195      -0.18604416      -0.42461860       0.00031743      -0.00060970      -0.00008451
C        4.40432268       0.54927408       0.71475165      -0.00117771      -0.00148816       0.00019771
C        3.09070522       0.87925172       1.01803016      -0.00006050      -0.00084615      -0.00053023
O       -1.78734066      -0.13305184      -1.76112763       0.00186607       0.00063014      -0.00059551
H       -1.49935293       1.46183210       1.09062807       0.00024287      -0.00061086      -0.00105843
H       -2.16676689      -1.48370921       1.51267860       0.00031628       0.00076523      -0.00069568
H       -2.77360672      -0.12051592       2.48179656      -0.00154066      -0.00004542       0.00075327
H        1.53559384      -0.57076874      -1.61592239      -0.00047792      -0.00118211      -0.00030941
H        3.88837227      -1.16516344      -2.15649707      -0.00001363       0.00001167       0.00043511
H        5.71810652      -0.44415830      -0.65759489       0.00000373       0.00066008      -0.00089291
H        5.20146226       0.86660179       1.37440450       0.00013600       0.00156028      -0.00044008
H        2.83936090       1.44928585       1.90250325      -0.00028346       0.00105424      -0.00028364
H       -1.60359889       0.02233500      -0.61350851       0.00004986       0.00043914       0.00060347
H       -2.65395871      -0.56835850      -1.77691317      -0.00023030      -0.00000420       0.00037742
