27
Properties=species:S:1:pos:R:3:forces:R:3 charge=0 spin=1 energy=-36131.578125 stress="1.6965587823492e-09 -2.6642918427022266e-10 -3.3644592667414486e-10 -2.6642918427022266e-10 1.1067463612235429e-09 3.6273381520679493e-10 -3.3644592667414486e-10 3.6273381520679493e-10 1.300895169364935e-09" free_energy=-36131.578125 pbc="F F F"
O       -0.22839923      -1.27617899       1.45589967       0.00031534       0.00056332      -0.00055701
N        0.45923083      -0.13135616       1.32644143       0.00063342       0.00025508      -0.00017336
C        1.08254897      -0.06752942       0.00891356       0.00052841      -0.00016373       0.00017712
C        1.26160132      -1.42999457      -0.65137286      -0.00009030       0.00000268      -0.00019670
O        0.62324009      -1.80208906      -1.59495966      -0.00009602       0.00084274       0.00225589
O        2.22326388      -2.14365758      -0.06380031       0.00021482       0.00034241      -0.00060057
C        2.36326717       0.74472910      -0.04644528       0.00109661      -0.00114867      -0.00054073
O        3.08620118       0.70119786      -1.00184816      -0.00037068       0.00009992       0.00078183
O        2.55850809       1.52045815       1.02005469      -0.00070690      -0.00067452      -0.00029981
S       -0.05854479       0.97523197      -1.12772169       0.00017461       0.00008833      -0.00021362
O        0.14895474       2.36228518      -0.66799917       0.00002590      -0.00030112      -0.00014371
C       -1.64269330       0.45232497      -0.49626213      -0.00004679       0.00074294      -0.00019684
C       -2.26287929      -0.66334728      -1.03759177      -0.00012487       0.00039151       0.00029583
C       -3.51714280      -1.01902347      -0.56705781      -0.00009002      -0.00050952      -0.00063983
C       -4.13359914      -0.25665376       0.41536987       0.00014248      -0.00019029      -0.00080204
C       -3.50548328       0.86942156       0.93224755       0.00068629      -0.00092060      -0.00009142
C       -2.24912857       1.23220684       0.47539736       0.00040493       0.00032120       0.00068961
O        1.66799420      -0.74349180       2.34544762       0.00008479      -0.00018890       0.00005804
H        2.27793732      -2.98703046      -0.53835637      -0.00009634       0.00005734       0.00071833
H        3.33985052       2.06185625       0.82994263      -0.00148479      -0.00038558      -0.00063270
H       -1.76247193      -1.24910253      -1.79617776      -0.00070865       0.00060660      -0.00012133
H       -4.01412132      -1.89111758      -0.97072198      -0.00066391      -0.00066192       0.00037544
H       -5.11469051      -0.53811253       0.77608032       0.00012900       0.00035800      -0.00055375
H       -3.99523721       1.46363514       1.69224409       0.00128992      -0.00096393      -0.00000575
H       -1.73197801       2.10683252       0.84775015      -0.00019214       0.00063162       0.00125737
H        0.74493030      -1.48281803       2.27346709      -0.00038786       0.00068358      -0.00002319
H        1.61516076      -0.15880631       3.11710890      -0.00066744       0.00012203      -0.00081703
