26
Properties=species:S:1:pos:R:3:forces:R:3 charge=0 spin=1 energy=-27640.01171875 stress="2.6429222699242416e-10 -1.381861403082496e-09 3.69132224786739e-10 -1.381861403082496e-09 -6.514648265287803e-10 -6.182300782420214e-10 3.69132224786739e-10 -6.182300782420214e-10 -1.8058650130825527e-09" free_energy=-27640.01171875 pbc="F F F"
C        2.92794035       0.10070905       1.49834740      -0.00105226       0.00004062       0.00068808
C        2.39693409      -0.18203616       0.12416983      -0.00036424      -0.00074375       0.00071013
O        2.22438670       0.68791115      -0.69943815      -0.00010207       0.00117823      -0.00185204
C        2.03245518      -1.62326707      -0.20304889      -0.00009832      -0.00023231       0.00052581
C        0.62821800      -1.69760357      -0.76478386      -0.00021923      -0.00054574       0.00051168
O       -0.26804844      -1.24498464       0.25497378      -0.00125927      -0.00032234      -0.00046510
C       -0.76951710       0.52306029       0.67393995      -0.00048763      -0.00041187       0.00004040
O       -0.66153956       0.60997597       1.82600560       0.00055587       0.00124818       0.00088443
N       -0.69109585       1.25516786      -0.40707446      -0.00003756      -0.00007737       0.00037879
C       -0.32893196       2.66306580      -0.21918933      -0.00005546      -0.00051962       0.00029457
C       -1.07883698       0.86550361      -1.75093709       0.00051100       0.00041816       0.00014335
Cl      -2.98375310      -0.77826250       0.24357078       0.00057955      -0.00045648      -0.00032297
H        3.26767834       1.13024959       1.57281843       0.00086157       0.00064871       0.00048637
H        2.11968131      -0.07544244       2.21457214       0.00015821      -0.00076979       0.00043999
H        3.73565000      -0.58990744       1.74615026       0.00024083       0.00072834      -0.00027943
H        2.11691635      -2.26103453       0.67675984      -0.00044204       0.00008029      -0.00223976
H        2.74191139      -1.97585550      -0.95695269      -0.00100152      -0.00024113       0.00062990
H        0.35963402      -2.72234720      -1.02006096       0.00038379       0.00028250      -0.00032826
H        0.54686604      -1.07750072      -1.65634992       0.00172569      -0.00046347       0.00016628
H        0.50618467       2.89120251      -0.88003976       0.00073624       0.00057645      -0.00080202
H       -0.02989621       2.82943201       0.81121167       0.00070348      -0.00023362       0.00047877
H       -1.18365064       3.29672246      -0.45944455      -0.00070247      -0.00036851      -0.00004687
H       -1.52350428      -0.12123495      -1.73440279      -0.00094554       0.00032213      -0.00019264
H       -1.84011831       1.56187535      -2.10323029      -0.00108455      -0.00027037      -0.00031415
H       -0.20641535       0.91614076      -2.40405055       0.00127073      -0.00003528      -0.00036012
H       -1.23910867      -1.51084970       0.14310360       0.00012530       0.00016744       0.00082491
