23
Properties=species:S:1:pos:R:3:forces:R:3 charge=0 spin=1 energy=-15556.638671875 stress="4.314025525697929e-10 -4.032174941159816e-11 7.549177949428554e-11 -4.032174941159816e-11 3.060939279819763e-10 -3.882691043677333e-11 7.549177949428554e-11 -3.882691043677333e-11 2.1985140097324773e-10" free_energy=-15556.638671875 pbc="F F F"
N        2.95148426      -0.61282855      -0.66725309      -0.00041291       0.00003929      -0.00019133
C        4.32880127      -1.08916128      -0.60102987      -0.00049192       0.00003517      -0.00006088
C        2.38766733      -0.08679595       0.38896242      -0.00036073       0.00032422      -0.00030458
O        2.57441451       0.19195596       1.52920575       0.00030473      -0.00007220       0.00056243
C        0.76049917       0.28674312      -0.28398373      -0.00031251       0.00005166      -0.00043928
C        0.49022022       1.63057817      -0.56567842      -0.00008775       0.00038282       0.00021202
C       -0.78991690       2.13297324      -0.40984713      -0.00006226      -0.00004295       0.00027473
C       -1.80561722       1.29655943       0.03101511       0.00001035      -0.00036585      -0.00006835
C       -1.56376039      -0.04776953       0.30955043       0.00006688      -0.00007522       0.00020143
C       -2.67524689      -0.94796838       0.80925292       0.00017253      -0.00006952       0.00025912
C       -3.92506596      -0.77476174       0.06659331      -0.00100839      -0.00013864      -0.00121039
N       -4.90239579      -0.62341966      -0.51493603       0.00115810       0.00000457       0.00115405
C       -0.28467581      -0.54342137       0.14332708      -0.00012667      -0.00003260      -0.00069267
H        1.62666171      -0.26590257      -1.04604346      -0.00005760       0.00000374       0.00044519
H        4.94008249      -0.55575454      -1.32982259       0.00013534      -0.00014332       0.00045797
H        4.36413668      -2.15167267      -0.84418860       0.00051802       0.00010100       0.00015569
H        4.75767470      -0.94239374       0.39086810       0.00018246      -0.00023257      -0.00053525
H        1.29296102       2.27205271      -0.90936072       0.00007783      -0.00011353      -0.00015603
H       -1.00572159       3.16955017      -0.63171724       0.00019464      -0.00023021      -0.00008589
H       -2.80914832       1.69020115       0.14558382       0.00019753       0.00004277      -0.00003360
H       -2.37557452      -1.99364388       0.73738234       0.00006411       0.00045195      -0.00000832
H       -2.88267588      -0.74714450       1.86315400      -0.00020296      -0.00003537      -0.00021700
H       -0.07661407      -1.58926557       0.34342558       0.00004126       0.00011531       0.00028112
