32
Properties=species:S:1:pos:R:3:forces:R:3 charge=0 spin=1 energy=-20783.654296875 stress="-6.146740894052982e-10 -1.23753440828267e-09 -6.006389274837431e-10 -1.23753440828267e-09 -1.638176705398564e-09 4.9365921073185604e-11 -6.006389274837431e-10 4.9365921073185604e-11 -8.805149942503476e-10" free_energy=-20783.654296875 pbc="F F F"
C       -2.12272784       2.03258451      -0.60391563      -0.00029417       0.00118777       0.00061464
C       -1.08958476       0.96202728      -0.38030307       0.00024313       0.00001869      -0.00035709
C       -1.48267283      -0.37966757      -0.33206518      -0.00012696       0.00015497       0.00004631
N       -3.12804699      -0.91059646       0.91725064       0.00001562       0.00023222       0.00036180
O       -3.57620736      -0.04503105       1.45962419      -0.00000192      -0.00074258      -0.00063139
C       -0.52737070      -1.35662931      -0.10804322      -0.00023763      -0.00006011      -0.00006127
C        0.81463054      -1.02893154       0.03448489      -0.00020631      -0.00037763      -0.00011891
C        1.75461962      -2.12442316       0.37576953      -0.00063831       0.00085711      -0.00024091
O        1.47341345      -3.29523096       0.29028822      -0.00097126      -0.00124359       0.00164253
C        1.22141587       0.31124195      -0.06433561      -0.00024420      -0.00005636       0.00068305
N        2.59330238       0.70031683       0.00404832      -0.00026000       0.00015930       0.00017408
C        3.51472630       0.11347861      -0.94653854      -0.00036381       0.00075030       0.00040936
C        3.12418373       0.92398508       1.33238002      -0.00012227       0.00006655       0.00087143
C        0.26165913       1.31288700      -0.25909058      -0.00000881      -0.00001401      -0.00002982
C        0.66284218       2.75767631      -0.37104301      -0.00025304      -0.00104350      -0.00024840
O       -3.92672018      -0.90246006      -0.94384218      -0.00048184       0.00025260      -0.00011224
H       -1.85432255       2.66300663      -1.45351419       0.00007252      -0.00076515       0.00070396
H       -3.10167924       1.60153471      -0.80281768       0.00016871       0.00037612       0.00056432
H       -2.20078221       2.69256641       0.26430436       0.00065278       0.00004108      -0.00077109
H       -0.80025654      -2.40257105      -0.01790850      -0.00025007      -0.00004202       0.00005321
H        2.73962127      -1.82480440       0.76636401       0.00108315      -0.00006315      -0.00115791
H        3.90631446      -0.87411654      -0.66834118       0.00085651      -0.00107920       0.00054302
H        4.37195679       0.78074475      -1.06632877       0.00028703       0.00159670      -0.00084354
H        3.02241105       0.02201192      -1.91396060      -0.00083834      -0.00051076      -0.00092797
H        2.42022489       1.52434774       1.90901994       0.00021348      -0.00031879       0.00032799
H        3.32132985       0.00059915       1.89673231       0.00112808      -0.00028203      -0.00016287
H        4.06307225       1.47688220       1.25920890      -0.00055084       0.00088951      -0.00017419
H        1.73161349       2.87995020      -0.22566975       0.00105244      -0.00013751       0.00030120
H        0.40838030       3.15314851      -1.35708623       0.00024346      -0.00016633      -0.00136667
H        0.13222415       3.36874159       0.36229103      -0.00058296       0.00085111       0.00100718
H       -2.66958453      -0.69035056      -0.84844494       0.00018644      -0.00000720      -0.00034019
H       -4.10574599      -1.81162872      -1.20936748       0.00022903      -0.00052333      -0.00075960
