16
Properties=species:S:1:pos:R:3:forces:R:3 charge=0 spin=1 energy=-82491.421875 stress="4.5108987656306e-09 -1.5608163650426832e-09 -2.1624119161955946e-10 -1.5608163650426832e-09 2.477471561235234e-10 1.186758330495863e-10 -2.1624119161955946e-10 1.186758330495863e-10 -5.094245580927748e-10" free_energy=-82491.421875 pbc="F F F"
O        2.41437234       1.34020441       0.38568866      -0.00026575       0.00028387      -0.00027665
C        2.01960446       0.26536327      -0.41045967      -0.00042224       0.00000267       0.00038874
O        2.51780731      -0.95556647       0.00937426      -0.00082058      -0.00019343       0.00024065
C        3.93126378      -1.06307092      -0.13814667      -0.00075431       0.00034499      -0.00012326
C        0.50345898       0.09717470      -0.35565757       0.00013871      -0.00053209       0.00033855
Br      -2.24031925      -1.46648879       0.52132820       0.00044620       0.00070041       0.00078917
C       -0.29049995       1.27367734      -0.41556908       0.00080563      -0.00156331      -0.00071597
O       -0.87374529       2.24747898      -0.51972739       0.00058395       0.00102866      -0.00088878
O       -0.02576979       0.27355806       0.98423790       0.00108668      -0.00106966       0.00156212
H        2.02591271       1.20251157       1.26281588       0.00092122       0.00022861       0.00055394
H        2.33757744       0.50176268      -1.43262840       0.00005655       0.00028901       0.00075117
H        4.44620811      -0.31258114       0.46194883      -0.00134444       0.00073918       0.00030911
H        4.20351559      -2.05716802       0.20331150      -0.00127557       0.00032172      -0.00040815
H        4.21449375      -0.94770936      -1.18868291      -0.00045989       0.00031369      -0.00051915
H        0.10652734      -0.78037488      -0.86323008       0.00101588      -0.00042702      -0.00085382
H       -0.95775752      -0.44524142       1.00735656       0.00028798      -0.00046700      -0.00114796
