19
Properties=species:S:1:pos:R:3:forces:R:3 charge=0 spin=1 energy=-38220.1484375 stress="-5.647335377112483e-10 3.5166569656297497e-10 1.1395387966572912e-09 3.5166569656297497e-10 2.6404589625883546e-09 1.3447628566254366e-09 1.1395387966572912e-09 1.3447628566254366e-09 6.666501239926959e-10" free_energy=-38220.1484375 pbc="F F F"
N        2.84570786       0.70816402      -0.56434958      -0.00030595      -0.00014785      -0.00025792
C        1.77137482       1.36992038       0.08199997      -0.00014969      -0.00004464      -0.00030950
N        0.39299497       0.84642354      -0.27547432      -0.00017643      -0.00047922      -0.00017607
C       -0.62769244       1.67310530       0.32299162      -0.00004071      -0.00059891      -0.00002483
O       -1.09847411       2.62759134      -0.21293509       0.00027639      -0.00016883      -0.00075181
O       -0.86323040       1.27016874       1.57184689       0.00095018      -0.00013847      -0.00040644
S        0.23920358      -1.26829794       0.14768053       0.00001907       0.00050545       0.00041378
N       -0.83526501      -2.36263277       0.70289905       0.00018558      -0.00012076       0.00023076
O        1.04050826      -1.03280477       1.31545757      -0.00012267       0.00029050       0.00047600
O        0.81502335      -1.67463808      -1.08684296       0.00085557       0.00059164       0.00035179
Cl      -1.93066499      -0.44972459      -1.04037784      -0.00023666      -0.00010956       0.00072707
H        2.92458050      -0.25993986      -0.28683203      -0.00181267      -0.00016797       0.00028820
H        2.80578877       0.76826680      -1.57222963       0.00147338      -0.00059595      -0.00050902
H        1.85498192       1.26743668       1.16061032       0.00186089       0.00005662      -0.00098360
H        1.76776786       2.42872390      -0.18589330      -0.00128264      -0.00031407       0.00112331
H       -1.54193548       1.85995494       1.93063200      -0.00120113      -0.00038181       0.00068143
H       -1.68386057      -2.36404629       0.14496881       0.00003338       0.00010650       0.00018689
H       -0.99449693      -2.22622643       1.69425924      -0.00049879      -0.00002011      -0.00085670
H        0.23040804       0.86497509      -1.28221125       0.00017297       0.00173786      -0.00020349
