18
Properties=species:S:1:pos:R:3:forces:R:3 charge=0 spin=1 energy=-15442.462890625 stress="1.8419845648764976e-09 2.6749807924275615e-10 1.246451164504947e-09 2.6749807924275615e-10 1.915169967059427e-10 -5.145412429463647e-10 1.246451164504947e-09 -5.145412429463647e-10 6.561680088168487e-10" free_energy=-15442.462890625 pbc="F F F"
O       -2.11646832      -1.97083942       0.56399144      -0.00056131      -0.00048447       0.00029932
C       -2.25407600      -0.79372640       0.36907707       0.00051922      -0.00010383       0.00049585
C       -1.59731021      -0.05086961      -0.77741552      -0.00028574      -0.00048938      -0.00006682
N       -1.21578515       1.29575972      -0.42273588       0.00018916       0.00008638      -0.00010579
C       -0.02534424       1.62234592       0.20067107      -0.00023784       0.00149000       0.00043237
O        0.36554975       2.77425218       0.20950761      -0.00074045      -0.00172734      -0.00035351
C        0.73655484       0.49422743       0.80632653      -0.00035477       0.00043863       0.00025719
N        1.60792166      -1.56688721       0.03959475       0.00217271      -0.00015172       0.00058335
O        2.48459765      -1.86890310       0.64737594      -0.00185144       0.00016004      -0.00098854
O        2.06228552      -0.24508161      -1.33176671      -0.00040869      -0.00046182       0.00055695
H       -2.88175904      -0.16386561       1.03140174       0.00008941       0.00035630      -0.00051577
H       -2.33534892      -0.00091457      -1.58265938       0.00005052      -0.00025681      -0.00015850
H       -0.76031831      -0.64590503      -1.14881879       0.00028357       0.00020918      -0.00020959
H       -1.61416839       2.06098379      -0.94148798       0.00071788       0.00056207       0.00064602
H        1.50119181       0.88905202       1.47394891      -0.00010122      -0.00032147      -0.00005533
H        0.09438089      -0.21025819       1.33062500       0.00040848       0.00043486       0.00000414
H        1.44074793       0.18777670      -0.37232497      -0.00041369       0.00005266      -0.00082856
H        2.97768853       0.04315299      -1.21592086       0.00052413       0.00020608       0.00000729
