27
Properties=species:S:1:pos:R:3:forces:R:3 charge=0 spin=1 energy=-13012.0634765625 stress="-6.22816909157109e-10 -2.6379409073795657e-11 1.2798846704686895e-10 -2.6379409073795657e-11 -8.961782704819399e-11 1.9640475357185494e-10 1.2798846704686895e-10 1.9640475357185494e-10 -4.972889877663533e-10" free_energy=-13012.0634765625 pbc="F F F"
O       -0.73159857       2.56860800      -0.17178991      -0.00068343      -0.00004035      -0.00009053
C        0.57968576       2.36891060      -0.03138474       0.00023353      -0.00009263       0.00008015
C        0.90211006       0.97287053       0.45505155       0.00037751      -0.00002754      -0.00008601
N        1.99916332       0.34663701       0.16799273      -0.00028723       0.00013649       0.00030446
C        2.32350621      -1.01077381       0.58514961       0.00001189      -0.00025535      -0.00011033
C        2.37977994      -1.93530273      -0.61945035      -0.00027943      -0.00020686       0.00011837
N       -0.90521055       0.03401921      -0.71402245      -0.00008056       0.00013804      -0.00033012
N       -1.69630809      -0.56157563       0.30614238      -0.00014907       0.00006676       0.00006464
C       -1.64578142      -1.99780229       0.17736821      -0.00001966       0.00009623       0.00016590
C       -3.05910697      -0.05662978       0.26002887       0.00038114      -0.00004441      -0.00030714
H       -1.04674992       1.09120975      -0.64049767      -0.00007567      -0.00009662      -0.00010806
H        1.06865291       2.99821536       0.75607655       0.00010490       0.00005221       0.00016186
H        1.20667596       2.53228850      -0.94304278       0.00027992      -0.00002143      -0.00019196
H        0.25985229       0.53915703       1.21529974      -0.00009471      -0.00011733       0.00005931
H        2.58502124       0.75069517      -0.55179610       0.00011939       0.00016843      -0.00021747
H        1.54979790      -1.31969265       1.28643999       0.00006431      -0.00000542       0.00004274
H        3.27692086      -0.99827068       1.11612421       0.00004879      -0.00001909       0.00004807
H        2.61393233      -2.95339070      -0.30962004       0.00000176       0.00026238      -0.00007693
H        1.42306917      -1.93263560      -1.14096465       0.00025943      -0.00004831       0.00010158
H        3.15538750      -1.61232027      -1.31662299       0.00000623       0.00002073      -0.00005041
H       -1.21600128      -0.28681947      -1.63661615      -0.00002779       0.00006914       0.00017935
H       -2.23686312      -2.45685677       0.96939182      -0.00006831      -0.00000525       0.00008859
H       -2.04845941      -2.33749154      -0.79401351      -0.00008089      -0.00004093      -0.00031832
H       -0.61589573      -2.34507067       0.25995400       0.00023224      -0.00004995       0.00002877
H       -3.02699982       1.02854524       0.33850812       0.00006169       0.00037728       0.00001196
H       -3.56277379      -0.33266828      -0.68137247       0.00007620      -0.00003333      -0.00003690
H       -3.63136676      -0.46254552       1.09516604      -0.00041220      -0.00028266       0.00046772
