12
Properties=species:S:1:pos:R:3:forces:R:3 charge=0 spin=1 energy=-26028.359375 stress="-1.4058946229411617e-09 -6.978492228526534e-10 -5.202263064774115e-10 -6.978492228526534e-10 -9.376779352976428e-10 3.7069100566888835e-10 -5.202263064774115e-10 3.7069100566888835e-10 -5.532104774275126e-10" free_energy=-26028.359375 pbc="F F F"
O        0.76020625       1.98401536       1.01521353       0.00081114       0.00119171       0.00100425
N        0.31612466       1.44760898       0.15053947      -0.00070453      -0.00102863      -0.00075086
C       -0.59369762      -0.37438713       0.66536465       0.00001975      -0.00089821      -0.00047657
C       -1.84221197      -0.09341581      -0.05287533      -0.00021291      -0.00007892      -0.00005534
O       -2.77709392       0.50333506       0.41857105      -0.00018579      -0.00013128       0.00004974
O       -1.82390966      -0.53184242      -1.33078474      -0.00028192       0.00031316       0.00017247
C        0.36523651      -1.21896890       0.12718149       0.00038713       0.00024489       0.00033146
F        1.19689309      -1.80660125       0.96324588      -0.00018996      -0.00054234       0.00013775
Cl       1.96083769       0.10717180      -0.96910247       0.00040680       0.00041035      -0.00051716
H       -0.61859581      -0.23470721       1.73672835       0.00012298       0.00032336      -0.00016987
H       -2.66715896      -0.27255738      -1.73022751       0.00012051       0.00004499      -0.00029230
H        0.24987973      -1.71680111      -0.82149437      -0.00029337       0.00015098       0.00056666
