27
Properties=species:S:1:pos:R:3:forces:R:3 charge=0 spin=1 energy=-28006.11328125 stress="4.188389357562272e-10 1.5481897985836213e-09 8.839337595212271e-11 1.5481897985836213e-09 -1.1139150712935475e-09 1.2548331818074132e-10 8.839337595212271e-11 1.2548331818074132e-10 1.6273449254811112e-09" free_energy=-28006.11328125 pbc="F F F"
C        3.36047416       1.03550183      -0.58649484      -0.00015794      -0.00005598       0.00110179
C        2.65674021       0.50180041       0.66004872       0.00024591       0.00053386       0.00023478
C        1.25508349      -0.05815927       0.46888199       0.00046818      -0.00086200      -0.00133107
N        1.11740919      -1.40925408      -0.07979354       0.00102563      -0.00056016      -0.00050831
O        2.12285235      -1.73567125      -0.89573908      -0.00053489      -0.00019467      -0.00150108
S        0.27580335       1.02734959      -0.69120804      -0.00156271       0.00008559      -0.00032794
O        0.36683525       2.36491503      -0.05509921      -0.00028045      -0.00016475      -0.00021750
C       -1.34157938       0.37309004      -0.28071487      -0.00091863       0.00037396       0.00037447
C       -1.85061547      -0.70843282      -0.98353155       0.00055673      -0.00031566       0.00046908
C       -3.11811609      -1.17670365      -0.67236015       0.00084462       0.00035363       0.00053202
C       -3.86263788      -0.55557670       0.32180361      -0.00094767       0.00099472      -0.00120658
C       -3.34735688       0.53799689       1.00422381      -0.00091954       0.00047119      -0.00032024
C       -2.07896549       1.01204355       0.70201156      -0.00026040      -0.00044984       0.00115136
O        1.81652576      -2.39162430       1.15417215       0.00128356       0.00002205      -0.00204536
H        4.38776272       1.30257203      -0.33615430      -0.00043835       0.00021045       0.00059411
H        3.38395399       0.28982046      -1.37774997       0.00003949       0.00086375       0.00081870
H        2.87312282       1.93676980      -0.95891692       0.00046536       0.00055392       0.00041228
H        3.24904353      -0.29248771       1.11942966      -0.00033694       0.00018846      -0.00062819
H        2.57352778       1.29887225       1.40020765      -0.00073849      -0.00037281      -0.00035054
H        0.67728957      -0.04401375       1.39265419       0.00093840       0.00033651      -0.00050960
H       -1.25890816      -1.18064137      -1.75766339       0.00022638      -0.00058849       0.00075127
H       -3.52761757      -2.02133585      -1.21060631       0.00106099       0.00063995       0.00105140
H       -4.85414368      -0.91937182       0.55816200       0.00041325      -0.00044984       0.00070100
H       -3.93676481       1.02779028       1.76825269      -0.00091778       0.00142673      -0.00153701
H       -1.65741570       1.87729416       1.19835000       0.00120561      -0.00102213       0.00008214
H        2.41627883      -2.44264949       0.11268588      -0.00122804      -0.00134236       0.00033472
H        1.20413809      -3.13975426       1.21303826       0.00046745      -0.00067651       0.00187404
