26
Properties=species:S:1:pos:R:3:forces:R:3 charge=0 spin=1 energy=-32289.576171875 stress="-4.43161018992555e-09 6.364143656512056e-10 -1.1997880466907418e-09 6.364143656512056e-10 -6.004944263192369e-13 -7.153252989944292e-10 -1.1997880466907418e-09 -7.153252989944292e-10 -7.483679648201402e-11" free_energy=-32289.576171875 pbc="F F F"
C       -0.49394400       0.56102981      -1.19364185      -0.00134683       0.00040897      -0.00007889
C        0.77813841       0.39625664       0.93448019       0.00094372       0.00038025      -0.00165135
O        0.03339112       0.61966021       1.77960732       0.00046241       0.00153960       0.00159627
C        2.10997095       0.19197913       0.43844451      -0.00005098       0.00067171      -0.00013762
C        3.10134017       1.03419501       0.95846596       0.00107604       0.00010944       0.00119661
C        4.40931193       0.86169910       0.53995029       0.00082836      -0.00064921      -0.00024542
C        4.72272787      -0.13997627      -0.36992148       0.00064254      -0.00145002       0.00070152
C        3.72838322      -0.97181007      -0.87470414       0.00042224      -0.00094905       0.00137389
C        2.41196391      -0.81165066      -0.48654754       0.00027262       0.00127769      -0.00181608
C       -1.21051004       1.71458121      -0.90175640       0.00034547      -0.00045063       0.00021893
C       -2.42023296       1.62183701      -0.24303938      -0.00152743      -0.00005078      -0.00031203
O       -3.07394798       2.77759198       0.07457169      -0.00093915      -0.00067535       0.00031810
C       -2.95099835       0.36597656       0.08881417       0.00140017      -0.00044297      -0.00032932
C       -2.28873123      -0.78105074      -0.25575281       0.00082862       0.00013918       0.00044060
Cl      -2.95720619      -2.31329732       0.16302216      -0.00095612       0.00000918      -0.00225341
C       -1.02935066      -0.76879044      -0.97523286      -0.00068304      -0.00088215      -0.00018468
O       -0.44635178      -1.80309622      -1.35389145      -0.00066376       0.00067151       0.00128275
H        0.39683521       0.61489182      -1.80499375      -0.00176352      -0.00002601      -0.00016782
H        2.84050802       1.81081484       1.66424850       0.00078913       0.00081465      -0.00025658
H        5.18460102       1.50913519       0.92616873       0.00057004       0.00032906      -0.00027786
H        5.74721240      -0.27306439      -0.69079735       0.00159556      -0.00090864       0.00106750
H        3.97732201      -1.74791407      -1.58535531       0.00059266      -0.00055772      -0.00070068
H        1.61879870      -1.43601801      -0.88147605      -0.00074568       0.00084913       0.00018972
H       -0.81104192       2.69078020      -1.14290813      -0.00121705       0.00003681      -0.00074966
H       -3.90104692       2.57185301       0.52447504      -0.00125344       0.00019953       0.00148678
H       -3.89065290       0.29406649       0.62609994       0.00037728      -0.00039506      -0.00071082
