21
Properties=species:S:1:pos:R:3:forces:R:3 charge=0 spin=1 energy=-39602.25390625 stress="-1.359551360380351e-09 -1.7290051612661728e-09 -1.1244131493948206e-11 -1.7290051612661728e-09 -1.1537224509083899e-09 -1.4979804063841584e-09 -1.1244131493948206e-11 -1.4979804063841584e-09 2.2952222344940765e-09" free_energy=-39602.25390625 pbc="F F F"
O        2.89840285       0.72014034       0.38412210      -0.00041521       0.00047088      -0.00152469
S        1.96289181      -0.11833327      -0.28342448       0.00055909       0.00018394      -0.00031114
O        2.13558274      -1.44214413      -0.79937010       0.00158249       0.00034797      -0.00054598
Cl       1.08919655      -0.97372685       1.80637202      -0.00123638       0.00030214      -0.00110775
C        0.24792943       0.52519028      -0.35786987       0.00025892       0.00000894       0.00068897
C       -0.03943944       1.72192687       0.35344729       0.00037256      -0.00000486       0.00150692
C       -1.34565319       2.01336631       0.65514055       0.00090030       0.00009680      -0.00050470
C       -2.34208339       1.08570367       0.35600786       0.00023627       0.00073762      -0.00077312
C       -2.06975800      -0.15059449      -0.23752331      -0.00034022       0.00063956       0.00004671
C       -3.16991558      -1.15490909      -0.42924371      -0.00124353      -0.00106345      -0.00011845
F       -4.34258366      -0.50887480      -0.79426955       0.00013390      -0.00238147       0.00042414
C       -0.77129605      -0.44702950      -0.56070901      -0.00028160      -0.00012179       0.00063185
O        2.03394661       0.71805037      -1.89615387      -0.00163147      -0.00094736       0.00062606
H        0.77779668       2.38326097       0.61114771       0.00160804       0.00059520      -0.00007936
H       -1.60106254       2.93908300       1.15049268      -0.00041516      -0.00044259       0.00023653
H       -3.37099100       1.31781649       0.60282972       0.00036687       0.00215246       0.00071197
H       -2.91580920      -1.87084648      -1.21014015      -0.00000674      -0.00035618       0.00080914
H       -3.36646465      -1.69129516       0.50121739      -0.00096005      -0.00000249      -0.00181135
H       -0.48905501      -1.40339869      -0.98427576      -0.00008768       0.00019792      -0.00075798
H        2.33538766       0.07383546      -2.55029381       0.00005786       0.00056612       0.00186941
H        0.57914738       0.88817869      -1.47712369       0.00054287      -0.00097939      -0.00001752
