12
Properties=species:S:1:pos:R:3:forces:R:3 charge=0 spin=1 energy=-14775.005859375 stress="-2.1991945764465726e-10 1.6332783736583423e-10 2.7584096118360435e-10 1.6332783736583423e-10 1.3910560481278367e-09 -7.598854878665406e-10 2.7584096118360435e-10 -7.598854878665406e-10 9.545024770574173e-10" free_energy=-14775.005859375 pbc="F F F"
N       -0.94131551      -2.55501997      -0.28239172       0.00007203       0.00028720       0.00003462
C       -0.22263273      -1.81911539       0.23230379       0.00010127      -0.00026143       0.00014427
C        0.58921755      -0.85738612       0.91487897      -0.00021744      -0.00008905      -0.00030779
N       -1.44259449       0.86967947      -0.68576881      -0.00033033       0.00101882      -0.00098494
O       -1.61846649       1.84152609      -1.15770958       0.00021711      -0.00103700       0.00105309
N        1.30031186      -0.00056536       0.01876578      -0.00007880      -0.00000262      -0.00033000
O        2.37932067       0.44426457       0.33377894       0.00008792       0.00011636       0.00007243
O        0.69074518       0.36640812      -1.00847259       0.00015640      -0.00031415       0.00035608
O       -1.15622672       1.03917770       1.21754335       0.00007868       0.00047767      -0.00004411
H        1.23178327      -1.23478642       1.69830523       0.00011077       0.00008535       0.00009012
H       -0.37122898       0.15039478       1.28352484      -0.00011542       0.00016835      -0.00004452
H       -0.69229360       1.85718253       1.45660180      -0.00008237      -0.00044952      -0.00003940
