21
Properties=species:S:1:pos:R:3:forces:R:3 charge=0 spin=1 energy=-36336.0625 stress="3.0222319091777194e-10 2.6128741531517008e-11 4.955950094753803e-10 2.6128741531517008e-11 -9.06662411814807e-10 2.7453314621617153e-10 4.955950094753803e-10 2.7453314621617153e-10 1.2132087001681668e-10" free_energy=-36336.0625 pbc="F F F"
C       -3.61374701      -0.49114690       0.22965083      -0.00009502       0.00075917      -0.00024070
C       -2.18717686      -0.75364763      -0.10180692      -0.00030863       0.00030226       0.00033671
O       -1.73745090      -1.08173547      -1.16621507       0.00068140      -0.00031891      -0.00039093
O       -1.38949935      -0.59271737       0.99488097      -0.00031823      -0.00023308       0.00048787
C       -0.08942387      -0.19003523       0.79805894       0.00029978      -0.00030580       0.00047956
O        0.65846942      -0.04248376       1.70917307      -0.00017500      -0.00039958      -0.00002009
S        0.74604794      -0.86676083      -0.79557227       0.00076854      -0.00099599       0.00063145
N        2.30939445      -0.41422186      -0.58545011      -0.00029500       0.00068802       0.00028279
C        3.10823769      -1.36223353       0.19192397       0.00046758      -0.00035173      -0.00029434
C        2.64006579       0.99907811      -0.38069743       0.00037765      -0.00008675       0.00059427
Cl      -0.64289116       1.83732784      -0.23794230      -0.00002306      -0.00002656       0.00024674
H       -3.72085953       0.59093950       0.32698170       0.00065251      -0.00039403       0.00046564
H       -4.25593141      -0.86050624      -0.56330736      -0.00060584       0.00044220       0.00006902
H       -3.86850566      -0.93833509       1.18864845      -0.00003900      -0.00030355      -0.00086367
H        2.86564127      -2.37960802      -0.11069576      -0.00000346      -0.00048642       0.00052290
H        4.15853867      -1.17994745      -0.03225561       0.00040522      -0.00013579       0.00019188
H        2.94158197      -1.24806753       1.26470513      -0.00116029       0.00034522      -0.00043902
H        3.70578795       1.10775502      -0.58332955      -0.00055327       0.00005776      -0.00137816
H        2.41373666       1.33043487       0.63247534       0.00017396       0.00062761      -0.00051204
H        2.07687110       1.61333535      -1.07852601      -0.00030187       0.00074776       0.00025111
H        0.32975287       0.16192620      -1.56134001       0.00005192       0.00006872      -0.00042075
