32
Properties=species:S:1:pos:R:3:forces:R:3 charge=0 spin=1 energy=-21353.43359375 stress="-2.039238999884674e-09 -3.3845001801147134e-10 1.4027777550662535e-10 -3.3845001801147134e-10 -6.52361775710375e-10 -2.0059979718989318e-11 1.4027777550662535e-10 -2.0059979718989318e-11 5.735215774516078e-11" free_energy=-21353.43359375 pbc="F F F"
C       -1.28591097      -1.21264904      -1.94313375      -0.00061741      -0.00007148      -0.00061674
O       -1.76315172       0.10489920      -1.60067110      -0.00111264       0.00005677      -0.00058979
N       -1.91889397       0.25604920      -0.23567669       0.00039476      -0.00057282      -0.00015956
C       -3.15467659       0.20733378       0.19441732       0.00030363       0.00000802      -0.00015825
C       -4.28093189      -0.06228003      -0.73911800       0.00007464       0.00094124       0.00082901
O       -3.42788925       0.40097025       1.44186024       0.00140274      -0.00021043       0.00017899
C       -0.59609663       0.32852127       0.55901625       0.00052878       0.00016534       0.00030994
C       -0.21797363      -0.96729717       1.11922291       0.00028758       0.00040266      -0.00015867
C        1.06632160      -1.39941506       1.09979400      -0.00022390      -0.00009724      -0.00001892
C        2.10088109      -0.66027360       0.46270611      -0.00019404      -0.00034878      -0.00020286
C        3.44211093      -1.09746052       0.44448684       0.00021282      -0.00038813      -0.00014530
C        4.41139161      -0.37718519      -0.19810932       0.00029967       0.00020194       0.00017621
C        4.05571123       0.82123490      -0.85843643       0.00019020       0.00015999       0.00032872
C        2.76674129       1.26860913      -0.86042416       0.00026990       0.00047255      -0.00004816
C        1.73606575       0.54421371      -0.19434945       0.00011849      -0.00007035      -0.00011998
C        0.40860270       0.99426168      -0.18865984       0.00009787       0.00008900       0.00001556
O       -1.17526912       1.24204374       1.75609390      -0.00118899       0.00067326      -0.00125748
H       -0.27537799      -1.37016427      -1.56810374       0.00128868      -0.00079352       0.00095630
H       -1.96211672      -1.97648224      -1.55278528       0.00029352      -0.00039598      -0.00013304
H       -1.29321583      -1.22891192      -3.03033773      -0.00022520       0.00091152      -0.00017589
H       -5.20558716      -0.06316272      -0.17061520      -0.00121836       0.00041632       0.00007884
H       -4.31056124       0.70124230      -1.51517373      -0.00013690       0.00011022       0.00028621
H       -4.14160796      -1.02068724      -1.23852727      -0.00097641      -0.00173342      -0.00017072
H       -0.99760809      -1.56049224       1.58574769      -0.00020170      -0.00013526      -0.00026906
H        1.30868797      -2.35054293       1.56191961      -0.00023934       0.00018755       0.00045180
H        3.68886149      -2.02291922       0.95379035      -0.00083540      -0.00058326       0.00036101
H        5.43835614      -0.71735481      -0.20690855       0.00100297       0.00042610      -0.00067607
H        4.81962480       1.39449478      -1.36966667       0.00022693       0.00040280      -0.00025517
H        2.50638333       2.18788656      -1.37272148      -0.00003189       0.00002000       0.00069612
H        0.13713565       1.89974698      -0.71682838       0.00071588      -0.00047022       0.00000554
H       -0.54617394       1.09282102       2.47185310      -0.00020346      -0.00059234       0.00063235
H       -2.54358287       0.75618970       1.86770845      -0.00030276       0.00081810      -0.00015069
