18
Properties=species:S:1:pos:R:3:forces:R:3 charge=0 spin=1 energy=-82543.9375 stress="3.53519680196257e-09 -5.662418867125041e-10 1.1001892730178042e-09 -5.662418867125041e-10 -2.982933622330819e-10 6.392776499136721e-12 1.1001892730178042e-09 6.392776499136721e-12 1.4526295444294846e-10" free_energy=-82543.9375 pbc="F F F"
O        0.47154109       1.90790466       0.71010587      -0.00030705       0.00175062       0.00011830
C        0.11553089       0.69237038       0.61997023      -0.00057071      -0.00012909       0.00017174
C        1.31161680      -0.08061221       1.04537806      -0.00058162       0.00027120       0.00048858
O        1.01485011      -1.28471960       1.64431529       0.00119153      -0.00135836      -0.00022437
Br       2.09871416      -0.44175300      -0.82832584      -0.00008139      -0.00015102      -0.00058645
C       -1.21557660       0.28958908       0.22774041       0.00033315      -0.00000724      -0.00005201
C       -1.47859001      -1.06456812       0.01185981      -0.00045874       0.00069799      -0.00033475
C       -2.74872303      -1.45815895      -0.37052301       0.00076219       0.00036892      -0.00132049
C       -3.74920875      -0.50863291      -0.53231491       0.00065838      -0.00038224      -0.00061314
C       -3.48936493       0.84056789      -0.31734610       0.00061154      -0.00007136       0.00003072
C       -2.22316587       1.24328193       0.06115760       0.00040279      -0.00015247      -0.00050947
H        1.46267907       1.49872041       1.15599628      -0.00029701      -0.00042200      -0.00057393
H        1.80640025      -1.57281390       2.11245016      -0.00186365       0.00026298      -0.00010337
H       -0.68420335      -1.78576156       0.13821129      -0.00131416       0.00042963       0.00169275
H       -2.96040560      -2.50451748      -0.54268294      -0.00018090      -0.00028321      -0.00019782
H       -4.74201238      -0.82157331      -0.82924957       0.00107041      -0.00016706       0.00093948
H       -4.27522988       1.57262065      -0.44429131       0.00093292      -0.00040910       0.00184199
H       -1.99911197       2.28723606       0.23647868      -0.00030752      -0.00024813      -0.00076779
