16
Properties=species:S:1:pos:R:3:forces:R:3 charge=0 spin=1 energy=-11453.921875 stress="-7.94402377213288e-10 5.046704720790274e-10 -1.1743264347052751e-11 5.046704720790274e-10 1.6638328492746268e-09 3.11126652219329e-10 -1.1743264347052751e-11 3.11126652219329e-10 1.1016639822614138e-09" free_energy=-11453.921875 pbc="F F F"
C       -1.43816676       1.47750416      -0.11555133      -0.00011231       0.00025165      -0.00014231
C       -1.29481521       0.74151074       1.07368501       0.00006455      -0.00003293      -0.00002146
C       -1.09677129      -0.44109204      -0.22104298      -0.00023115       0.00021151       0.00055665
O       -2.08041535      -1.19038324      -0.36792279      -0.00034177       0.00108492      -0.00003193
C        0.31354468      -1.00787461      -0.02744819       0.00005871      -0.00001995       0.00021489
C        1.46814710      -0.04856789      -0.04199971       0.00002855       0.00053060      -0.00123139
O        1.43616833       1.12195603      -0.32460918       0.00048744      -0.00081828       0.00061544
O        2.61003814      -0.67276115       0.29268818       0.00002125      -0.00002412       0.00029221
H       -0.91007479       0.35277629      -1.12602885      -0.00039928      -0.00089547       0.00017977
H       -2.40602187       1.53507841      -0.59820217      -0.00011742      -0.00052166       0.00018255
H       -0.66661504       2.15689257      -0.44779717       0.00008939       0.00037120       0.00002052
H       -0.41218051       0.92062046       1.67147647       0.00029934      -0.00041390      -0.00023799
H       -2.17176634       0.37216371       1.58193015      -0.00041610      -0.00013723      -0.00056252
H        0.33561801      -1.58349017       0.89839031       0.00041757      -0.00010373      -0.00018311
H        0.47212562      -1.72584723      -0.83647797       0.00075206       0.00063038       0.00048096
H        3.31743528      -0.01213602       0.24397024      -0.00060105      -0.00011359      -0.00013200
