25
Properties=species:S:1:pos:R:3:forces:R:3 charge=0 spin=1 energy=-28965.291015625 stress="-2.639501117673859e-10 -1.6305486127965452e-10 -9.457359201325843e-11 -1.6305486127965452e-10 6.697856158588422e-11 2.1976072350771148e-10 -9.457359201325843e-11 2.1976072350771148e-10 -1.0664615857081117e-09" free_energy=-28965.291015625 pbc="F F F"
C       -3.15569778      -1.77216273      -0.16272397      -0.00026301       0.00040293       0.00075601
O       -3.75728553      -0.53083876       0.14499205       0.00017142      -0.00140260      -0.00100598
C       -2.86303929       0.37227420       0.73513240       0.00038639      -0.00008667      -0.00026917
O       -1.83984776       0.75511145      -0.11921759       0.00046730       0.00075059      -0.00030029
S        0.15442595       0.48488000       0.32479857      -0.00019962      -0.00019968      -0.00167513
O       -0.07844994       0.89141510       1.67575403      -0.00043707      -0.00033236       0.00112653
O        0.09890806      -0.84627093      -0.19343978       0.00021780       0.00052035       0.00054830
O        1.76061166       0.83314885       0.15654617       0.00004119       0.00023296      -0.00055140
C        2.65137663       0.07199068       0.99257510       0.00014868       0.00011519       0.00026041
O        3.67167847      -0.46002544       0.24041005      -0.00014099      -0.00016734       0.00016754
C        3.26667834      -1.53601418      -0.59391562       0.00091362       0.00174220      -0.00019978
N       -0.05488991       1.80895840      -0.89371930       0.00039500      -0.00000991      -0.00100750
H       -2.41127248      -1.67163514      -0.95399604       0.00029773       0.00073202      -0.00012493
H       -3.94924811      -2.44069026      -0.48902612      -0.00054662      -0.00030139       0.00027607
H       -2.66479245      -2.19844696       0.71972046       0.00009590      -0.00037175      -0.00017639
H       -3.47293611       1.23328450       1.01910215      -0.00050765       0.00089624       0.00031495
H       -2.42004804      -0.07520653       1.63704125       0.00028532      -0.00026894       0.00016965
H        2.07736141      -0.70227874       1.51108086      -0.00085642      -0.00042278       0.00084698
H        3.10018237       0.76000895       1.70491852       0.00065573       0.00030155       0.00037280
H        2.60063295      -1.19278199      -1.38650727      -0.00082762       0.00010800      -0.00194260
H        4.17181802      -1.95018409      -1.03008877       0.00005334      -0.00152963      -0.00060241
H        2.75074343      -2.30515107      -0.01273744       0.00004810       0.00008835       0.00131056
H       -1.16761518       1.75642604      -0.81689141       0.00047441      -0.00005467      -0.00030440
H        0.41233566       2.63759798      -0.53721958      -0.00033028      -0.00087121      -0.00032441
H        0.35904965       1.52071072      -1.77636873      -0.00054288       0.00012848       0.00233427
