31
Properties=species:S:1:pos:R:3:forces:R:3 charge=0 spin=1 energy=-22799.048828125 stress="1.995026810419631e-09 1.3760147188346394e-10 1.6996538898528257e-10 1.3760147188346394e-10 4.3347708755803183e-10 9.158783453866448e-11 1.6996538898528257e-10 9.158783453866448e-11 1.0590829324641504e-09" free_energy=-22799.048828125 pbc="F F F"
C        3.72054455      -1.67585126      -0.71357584      -0.00048503       0.00022960      -0.00016017
N        3.24990943      -1.81292734       0.65576464      -0.00021073       0.00025356      -0.00056800
C        2.59025314      -0.64673943       1.19026960      -0.00031704      -0.00025175       0.00008222
C        1.19677794      -0.39675910       0.60389073       0.00026226       0.00027955       0.00060582
O        0.79121880      -1.05622025      -0.33894336       0.00063172       0.00025153       0.00094306
C        0.48056672       0.73798056       1.19948118      -0.00028713       0.00028837       0.00010848
N        1.42730023       0.72219247      -2.09653064       0.00022785      -0.00027621       0.00058317
O        1.71919483       1.06698633      -3.09975142      -0.00004569      -0.00000879      -0.00042772
C       -0.95838144       0.62896939       1.53622199      -0.00040179       0.00056827       0.00081539
O       -1.36836940       1.00062089       2.61929386       0.00024080      -0.00045261      -0.00143063
C       -1.94435435       0.07713895       0.54282370       0.00042969      -0.00013655      -0.00009835
C       -3.02407377      -0.65365137       1.02644329       0.00023821       0.00072071       0.00044846
C       -3.97655702      -1.14606223       0.15125001       0.00007541       0.00021382      -0.00011833
C       -3.86529642      -0.89024404      -1.20980294       0.00014576      -0.00073278      -0.00039111
C       -2.80042327      -0.14407191      -1.69143172      -0.00036946      -0.00033428      -0.00002147
C       -1.83505588       0.33055082      -0.81540066       0.00003879      -0.00009040      -0.00001819
O        0.76332128       2.37608044      -0.83857646       0.00033566       0.00015113      -0.00023496
H        4.34474610      -0.78321524      -0.87632072      -0.00022937      -0.00070444      -0.00002282
H        4.30467252      -2.55468920      -0.98384798      -0.00034636       0.00104959       0.00012036
H        2.86371013      -1.62977245      -1.38153186       0.00030753      -0.00009999       0.00015102
H        4.01662261      -2.06618791       1.26244259       0.00037879      -0.00042498       0.00001931
H        2.47321826      -0.76333443       2.26990216       0.00004540       0.00041030      -0.00138085
H        3.15913035       0.29369976       1.05067012      -0.00124730      -0.00113454       0.00056737
H        0.99546593       1.13001716       2.07772151      -0.00002512      -0.00015816      -0.00032631
H       -3.10395718      -0.82181047       2.09223155      -0.00014133      -0.00025925       0.00000906
H       -4.81105392      -1.72281671       0.52871823       0.00099880       0.00006732       0.00007990
H       -4.61433300      -1.26878410      -1.89383543      -0.00057048      -0.00031786       0.00007422
H       -2.72128421       0.06996034      -2.74955081       0.00052007       0.00055701       0.00030601
H       -1.00973736       0.92297654      -1.18709920      -0.00011975       0.00033563      -0.00008475
H        0.63582401       1.67528036       0.17804256      -0.00005359       0.00028729       0.00025424
H        1.38919038       3.08150340      -0.63337869      -0.00002649      -0.00028124       0.00011432
