11
Properties=species:S:1:pos:R:3:forces:R:3 charge=0 spin=1 energy=-12484.158203125 stress="-2.591439007826324e-10 1.66805361190292e-10 -6.592048573672571e-10 1.66805361190292e-10 6.951029196677894e-10 -4.6737023973175695e-11 -6.592048573672571e-10 -4.6737023973175695e-11 -1.4730743291835324e-09" free_energy=-12484.158203125 pbc="F F F"
O        1.38891806      -0.92490827      -0.75941688      -0.00015053       0.00013536       0.00010908
N        1.00895482      -0.36855211       0.38518125       0.00003612      -0.00004005       0.00003317
C       -0.03812027       0.63203232       0.12712350      -0.00017041       0.00046048       0.00036276
C       -1.36814240      -0.06825653       0.05380153       0.00031602       0.00102174      -0.00033280
O       -1.64706268      -1.18556113       0.28614329       0.00026369      -0.00030892       0.00044562
F       -2.30696778       0.83139638      -0.32265556      -0.00062701      -0.00006048      -0.00115217
O        2.36853072       0.65455646       0.35890585       0.00013953       0.00033426      -0.00027403
H        0.14467165       1.15494679      -0.81302465      -0.00012427      -0.00089304      -0.00044213
H       -0.07401560       1.34523639       0.95008799       0.00043791      -0.00053558       0.00153511
H        2.35055465      -0.08842468      -0.57053273      -0.00015636       0.00004166      -0.00035054
H        2.94715883       0.28435438       1.04325641       0.00003530      -0.00015540       0.00006605
