31
Properties=species:S:1:pos:R:3:forces:R:3 charge=0 spin=1 energy=-22798.951171875 stress="-1.0238436765064307e-09 -4.719133417374621e-10 9.980961612754413e-10 -4.719133417374621e-10 -3.3399369381292843e-10 6.530626595058209e-10 9.980961612754413e-10 6.530626595058209e-10 1.2343484012689032e-09" free_energy=-22798.951171875 pbc="F F F"
C        3.90354942      -2.48799058      -0.13276103       0.00028011       0.00042982       0.00003111
C        2.50676305      -2.00827334       0.15439518       0.00068116       0.00007248       0.00037366
O        1.52704372      -2.66804359      -0.09951692       0.00041080      -0.00160199      -0.00023119
C        2.38815465      -0.62899459       0.77233507      -0.00001450       0.00013247       0.00037630
N        1.04342455      -0.36737083       1.21747936      -0.00107738      -0.00063083      -0.00127262
C        0.57377943       0.98449588       1.06735073       0.00091887      -0.00029445       0.00009656
N        0.96387392       3.20615556      -0.23326954      -0.00114357       0.00026324       0.00136346
O        0.00135497       3.68803878      -0.45402618       0.00088573      -0.00169629      -0.00064480
C       -0.86192436       1.23758390       0.98233997       0.00002846      -0.00036466      -0.00003764
O       -1.33097360       2.32290028       1.32471506       0.00021422      -0.00013411       0.00045989
C       -1.77210878       0.22443206       0.34996152       0.00021148      -0.00052837      -0.00012943
C       -3.09018427       0.16914500       0.79412748      -0.00037441       0.00016132      -0.00080505
C       -3.98150450      -0.72435193       0.22601893      -0.00105144       0.00086596      -0.00074838
C       -3.56860579      -1.55662340      -0.80667714      -0.00028254      -0.00006053       0.00172518
C       -2.26264383      -1.49361348      -1.26712543       0.00061186      -0.00041755       0.00055037
C       -1.36324821      -0.61111466      -0.68545770       0.00116231      -0.00075199       0.00080260
O        1.35022380       1.60549477      -1.41683854      -0.00097111       0.00142860      -0.00042480
H        3.86935020      -3.39572118      -0.72869171      -0.00160406      -0.00020737       0.00042473
H        4.47414076      -1.71582486      -0.65073118       0.00022002       0.00086354       0.00072328
H        4.41333627      -2.69115561       0.81135660      -0.00058100      -0.00072903      -0.00044026
H        3.11562348      -0.55014378       1.58902217       0.00065318       0.00053374      -0.00039880
H        2.71603287       0.07188218      -0.01010614       0.00101303       0.00022635      -0.00111636
H        0.41736115      -1.07144929       0.85070227      -0.00042880      -0.00008851      -0.00025834
H        1.03643818       1.65750206       1.79049275      -0.00031640      -0.00023435      -0.00012084
H       -3.39880999       0.83757547       1.58699881      -0.00081911       0.00019585      -0.00045341
H       -5.00088177      -0.77246000       0.58600776      -0.00116515      -0.00026832       0.00040975
H       -4.26614610      -2.25426229      -1.25220047       0.00062713       0.00061843       0.00021835
H       -1.93604327      -2.13789440      -2.07284401       0.00012384      -0.00036994       0.00019507
H       -0.34237878      -0.58586983      -1.04515733       0.00045276       0.00072680      -0.00055318
H        0.95584625       1.31765878      -0.23875139       0.00015391       0.00151117      -0.00069743
H        0.60163658       1.45396289      -2.00960893       0.00118035       0.00034823       0.00058229
