18
Properties=species:S:1:pos:R:3:forces:R:3 charge=0 spin=1 energy=-11598.591796875 stress="4.407704423670111e-09 -6.353666481828668e-10 -8.292641573426351e-10 -6.353666481828668e-10 5.2118940274681336e-09 -3.0045719245919145e-09 -8.292641573426351e-10 -3.0045719245919145e-09 4.103474157690634e-11" free_energy=-11598.591796875 pbc="F F F"
C       -1.26237361      -0.72960667      -0.49948145       0.00051919      -0.00007063       0.00040984
F       -2.23836069      -0.72867352       0.39770674      -0.00021490      -0.00028577       0.00014651
C       -0.53047124       0.45314634      -0.72457665      -0.00108103      -0.00013931      -0.00051922
C       -0.99400159       1.75439249      -0.13274504       0.00012687       0.00115475       0.00158529
C        0.44396579      -0.42934750       0.47420052      -0.00020081       0.00066241      -0.00174749
O        0.40649718       0.05834819       1.60980613       0.00050260       0.00081104      -0.00140631
C        1.71818371      -0.83172655      -0.28252763       0.00016087       0.00067005      -0.00068790
N        2.62543341       0.26851142      -0.50549499      -0.00021723       0.00096954       0.00053355
H       -1.32426303      -1.55565568      -1.19965828       0.00115808       0.00067706      -0.00065841
H       -0.18208936      -1.49800465       0.35776746       0.00031576       0.00036284       0.00106367
H       -0.05503441       0.48702412      -1.69887461      -0.00062329      -0.00104001      -0.00071526
H       -1.13466421       1.63528954       0.94048590       0.00043012      -0.00044746      -0.00090806
H       -0.23807012       2.52404040      -0.28249856      -0.00018823      -0.00077891       0.00099564
H       -1.92706954       2.09579874      -0.58420533       0.00087713      -0.00070931       0.00060374
H        2.22039641      -1.57610227       0.33821238      -0.00086626       0.00134338       0.00049891
H        1.45441725      -1.30638516      -1.22975120      -0.00058016      -0.00069790      -0.00008734
H        2.83598023       0.70948402       0.38165481      -0.00014523      -0.00105450       0.00195771
H        2.19947381       0.97416671      -1.09411021       0.00002626      -0.00142705      -0.00106496
