22
Properties=species:S:1:pos:R:3:forces:R:3 charge=0 spin=1 energy=-14715.2109375 stress="-2.593793846372705e-09 2.1362458677010032e-11 -1.9168164833160972e-09 2.1362458677010032e-11 3.096634407229182e-11 -9.853249466340586e-11 -1.9168164833160972e-09 -9.853249466340586e-11 -1.123046322604182e-09" free_energy=-14715.2109375 pbc="F F F"
N        1.07758801      -1.48817687      -1.04704422       0.00080580      -0.00030410      -0.00016320
C        2.34449858      -0.83558662      -0.70230987      -0.00026277       0.00035511      -0.00027537
C        1.65316722      -0.45571068       0.51155015      -0.00042292       0.00044470       0.00008744
C        1.19046725       0.94852302       0.67290328      -0.00013158       0.00046192       0.00032353
F        2.29691746       1.77822989       0.43930818      -0.00055990      -0.00038954       0.00110934
O       -0.38642118      -1.00124806       1.11850757       0.00031626       0.00030851      -0.00035499
C       -1.52816864      -0.28354268       1.07651196      -0.00055683      -0.00030342       0.00034323
C       -2.02430922       0.13406918      -0.29955852      -0.00089312      -0.00026962       0.00029254
C       -3.43403436       0.65688212      -0.38775233      -0.00008225       0.00075629      -0.00068463
O       -1.32252315       0.06888552      -1.29284037      -0.00035113       0.00010671      -0.00030512
H        0.80774857      -2.26691247      -0.46164567      -0.00058007      -0.00031295      -0.00014037
H        0.27409883      -0.87867558      -1.22985965      -0.00023347       0.00072432      -0.00139499
H        2.57681088      -0.03461102      -1.39521006      -0.00012067      -0.00007398      -0.00084051
H        3.15667594      -1.54960314      -0.61949882      -0.00042149      -0.00057727       0.00186715
H        1.73440485      -1.08536782       1.38299999       0.00140644       0.00055815      -0.00080922
H        0.42192807       1.19824900      -0.05662488       0.00161722      -0.00024519       0.00083163
H        0.82621872       1.12905531       1.68012380       0.00148530      -0.00050290       0.00029528
H       -2.38322020      -0.80934330       1.55094303       0.00052059      -0.00063422       0.00145029
H       -1.48919050       0.68913113       1.63109218       0.00059606       0.00028652      -0.00086331
H       -3.69583180       1.24493380       0.49217033      -0.00104730       0.00041524      -0.00042583
H       -3.55545453       1.24638091      -1.29261620      -0.00067663      -0.00065416      -0.00058174
H       -4.11896081      -0.19357166      -0.42391989      -0.00040715      -0.00014988       0.00023909
