29
Properties=species:S:1:pos:R:3:forces:R:3 charge=0 spin=1 energy=-26020.685546875 stress="1.0164134811585512e-10 3.8549893832673376e-10 3.5764263772719573e-10 3.8549893832673376e-10 -2.9889940522664915e-10 2.4087062899802447e-10 3.5764263772719573e-10 2.4087062899802447e-10 -2.997082582112398e-10" free_energy=-26020.685546875 pbc="F F F"
C        2.22398647      -1.79031357       0.24192824      -0.00052935       0.00024423      -0.00023347
C        3.16797434      -0.84504460      -0.49110530       0.00027376      -0.00024214       0.00007576
N        3.43575047       0.38881727       0.22154901      -0.00010031      -0.00001995      -0.00036469
C        2.64117184       1.48689261       0.06624497      -0.00046957      -0.00008786      -0.00052047
C        2.95642877       2.65676519       0.96785459       0.00073564      -0.00013024       0.00000498
O        1.73134056       1.52159859      -0.73854379      -0.00021178       0.00011282       0.00013143
C        1.48916517      -2.71161571      -0.50375727       0.00009354      -0.00007531      -0.00027195
S       -0.39898065      -1.23443346       0.14239677       0.00021565      -0.00019243       0.00020164
C       -1.93369829      -0.35882152       0.03373287       0.00034165      -0.00025588      -0.00004987
C       -1.98614668       0.88859558      -0.59125747       0.00061661       0.00058120      -0.00000941
C       -3.18359177       1.58453910      -0.65203856       0.00002775       0.00017066      -0.00008956
C       -4.34058588       1.04103467      -0.11003667      -0.00008349       0.00035895      -0.00007088
C       -4.29295150      -0.20311999       0.50346326      -0.00014365      -0.00001903      -0.00000259
C       -3.09601074      -0.89774757       0.58379756      -0.00030104      -0.00064528      -0.00042874
H        1.21826749      -0.99237052       0.56190566       0.00039694      -0.00029758       0.00001994
H        2.54549947      -2.11597370       1.23072313      -0.00000646      -0.00019555       0.00026575
H        2.72140338      -0.57538350      -1.44768332       0.00015779       0.00041062       0.00035757
H        4.11951109      -1.34409458      -0.68424366       0.00057925      -0.00006445      -0.00014791
H        4.14048001       0.40114027       0.93626761      -0.00024277       0.00011946       0.00030828
H        3.92498731       2.57766755       1.45997447      -0.00119451       0.00041231       0.00020779
H        2.17620801       2.72050221       1.72685210       0.00035291      -0.00021397      -0.00022703
H        2.92029900       3.56926584       0.37718742      -0.00039262      -0.00029340       0.00022478
H        1.08909831      -3.61184929      -0.06265781      -0.00001466      -0.00021976       0.00009036
H        1.41569265      -2.61766332      -1.57871792      -0.00015353       0.00017209      -0.00019592
H       -1.07693767       1.30426928      -1.00981355       0.00059900      -0.00024223      -0.00031831
H       -3.21354586       2.55546469      -1.13030907      -0.00007734       0.00030656      -0.00037329
H       -5.27502444       1.58453935      -0.16454990      -0.00026919      -0.00007954       0.00031854
H       -5.19086217      -0.63179148       0.93092025      -0.00037625       0.00020779       0.00043842
H       -3.05116869      -1.86218938       1.07382638       0.00017563       0.00017837       0.00065857
