26
Properties=species:S:1:pos:R:3:forces:R:3 charge=0 spin=1 energy=-18864.322265625 stress="1.8865689010993947e-09 1.737364141440878e-09 2.58198767921769e-10 1.737364141440878e-09 -6.160433274615684e-10 1.0372724901230868e-10 2.58198767921769e-10 1.0372724901230868e-10 3.700894313229952e-10" free_energy=-18864.322265625 pbc="F F F"
C        2.86466500      -0.20758291       0.77658144      -0.00035748      -0.00028738      -0.00083974
N        3.97007352      -0.44859351      -0.09386315       0.00072977      -0.00095773       0.00049539
C        4.71344351       0.76540745      -0.41596555      -0.00045069       0.00028513       0.00070822
C        1.76028347      -1.06983178       0.75544935      -0.00023596      -0.00002977      -0.00007564
F        1.66286281      -1.98984785      -0.15784898       0.00054039      -0.00017512      -0.00006402
O        0.67677308       0.53928140      -0.24919195      -0.00059307      -0.00015783      -0.00094460
C       -0.41114554       1.25878144      -0.15501155      -0.00047982       0.00103951      -0.00137612
O       -0.41930273       2.47370740      -0.09366359       0.00033750      -0.00025129      -0.00072611
C       -1.70007960       0.46996608      -0.10510583      -0.00031579      -0.00023544      -0.00028884
C       -2.87952773       1.13654601       0.20784920      -0.00058476       0.00019799       0.00154826
C       -4.08007042       0.44639141       0.26116593      -0.00077273       0.00127766       0.00088340
C       -4.11378527      -0.91554426      -0.00855310       0.00130292       0.00052460      -0.00128021
C       -2.94169583      -1.58440502      -0.33238645       0.00039308      -0.00105835       0.00055077
C       -1.73928898      -0.89331496      -0.37787687       0.00038528      -0.00035365       0.00128444
H        2.06395101       0.62945437       0.34115710       0.00013992      -0.00016943      -0.00192000
H        3.12677864       0.14075010       1.77433795       0.00060885      -0.00039610      -0.00121536
H        3.65756820      -0.90259900      -0.94208701       0.00063641       0.00019395       0.00030130
H        5.18103709       1.15390472       0.48988931      -0.00124362       0.00012881       0.00154585
H        4.08749851       1.55446603      -0.84808684      -0.00039122      -0.00090864      -0.00031831
H        5.50625720       0.51607620      -1.11824019      -0.00058480       0.00090981       0.00032046
H        0.99107187      -1.10301419       1.51367621      -0.00055617      -0.00055956       0.00024408
H       -2.83158549       2.19979610       0.40073382      -0.00000386      -0.00021294       0.00103213
H       -4.99322949       0.97241616       0.50854502      -0.00103629       0.00098424      -0.00000544
H       -5.05297074      -1.45314277       0.02813947       0.00132887       0.00068876      -0.00064316
H       -2.96604928      -2.64319120      -0.55725297       0.00106847      -0.00084807       0.00019314
H       -0.82537279      -1.40520741      -0.64748076       0.00013432       0.00037047       0.00059014
