32
Properties=species:S:1:pos:R:3:forces:R:3 charge=0 spin=1 energy=-20787.005859375 stress="4.1106870685148067e-10 -2.8157076670254355e-10 6.005194952418691e-11 -2.8157076670254355e-10 3.8272936903060994e-11 -1.385049991364795e-10 6.005194952418691e-11 -1.385049991364795e-10 2.152814558564753e-11" free_energy=-20787.005859375 pbc="F F F"
C       -3.01944199      -0.56281916       1.52372674       0.00035073      -0.00001272       0.00001857
N       -2.22730070      -0.25488740       0.33901791      -0.00022179       0.00014961       0.00016326
C       -2.98358552      -0.39929502      -0.89643751      -0.00020660      -0.00012030      -0.00047386
C       -0.91089816      -0.69484733       0.42561339       0.00006922      -0.00009957      -0.00021255
O       -0.37613177      -1.08894432       1.42843036      -0.00007559      -0.00030596       0.00028187
N        0.00999307       0.15297261      -0.59901999       0.00019565       0.00061196       0.00004276
C       -0.49647470       1.49400112      -0.94972436       0.00016481       0.00064027      -0.00045961
C       -1.22777455       2.19035900       0.18620874      -0.00065196       0.00105792      -0.00049388
O       -1.99345404       3.09065529      -0.02102577       0.00124633      -0.00191885       0.00057119
C        1.40993083       0.11113513      -0.22562657       0.00039132       0.00030984      -0.00043069
C        1.89666463       0.89763987       0.80639054       0.00025950       0.00022139      -0.00036460
C        3.24105902       0.83700430       1.13530047      -0.00021206       0.00020213      -0.00046115
C        4.09285385      -0.01172566       0.44254546      -0.00001797      -0.00022974      -0.00032852
C        3.59712986      -0.80164228      -0.58271833      -0.00022777       0.00004800      -0.00011349
C        2.25310072      -0.74079092      -0.92017285      -0.00034731      -0.00036168       0.00039255
O       -0.81355628      -1.97281013      -1.01670974      -0.00029683      -0.00046355       0.00005248
H       -3.31440028      -1.61677588       1.54981070       0.00006761       0.00037161       0.00017338
H       -2.44297509      -0.34367656       2.41746751      -0.00058158      -0.00011067      -0.00020422
H       -3.91479782       0.05834333       1.50422636       0.00017804       0.00007645      -0.00000331
H       -2.35405778      -0.26687666      -1.76979854      -0.00003011       0.00006265      -0.00015846
H       -3.77414492       0.35327130      -0.90887663      -0.00006410       0.00004118       0.00029187
H       -3.41897446      -1.39799352      -0.97200862       0.00012351      -0.00033045       0.00021794
H       -1.16911902       1.44574021      -1.80280994       0.00002009       0.00033071       0.00042105
H        0.35302389       2.11795674      -1.23499724      -0.00047074      -0.00039119       0.00038935
H       -0.97155256       1.86798473       1.21127468      -0.00019985       0.00027959      -0.00047011
H        1.23423089       1.54356098       1.36636539       0.00016248       0.00023282       0.00039263
H        3.62052463       1.44722622       1.94415106      -0.00000157      -0.00003250       0.00082444
H        5.14156182      -0.05795609       0.70490387      -0.00010851      -0.00025094      -0.00003917
H        4.25484209      -1.46738639      -1.12550861       0.00000671       0.00031845       0.00019529
H        1.85720886      -1.35457474      -1.71939233       0.00014435      -0.00004925      -0.00007661
H       -0.18903789      -0.74005174      -1.27658450       0.00011830      -0.00019930      -0.00011856
H       -0.24446663      -2.66328703      -0.66045166       0.00021520      -0.00007817      -0.00001979
