17
Properties=species:S:1:pos:R:3:forces:R:3 charge=0 spin=1 energy=-12825.4580078125 stress="-6.748351211172121e-09 -9.251233668017278e-10 8.016152186485215e-10 -9.251233668017278e-10 -2.3261204074032094e-09 -7.400582369143649e-10 8.016152186485215e-10 -7.400582369143649e-10 1.5631940186722204e-09" free_energy=-12825.4580078125 pbc="F F F"
N        2.64024614      -0.70022784       0.62035365       0.00158401       0.00028092      -0.00109804
C        2.02104994       0.15146376      -0.37219403       0.00064738       0.00017346      -0.00064096
N        0.66780207       0.47410080       0.07765213       0.00009307      -0.00021964       0.00015463
O        0.17828156       1.41530521      -0.88221721      -0.00098658      -0.00010183       0.00058678
C       -0.17741897      -0.69401387       0.04716702      -0.00021850      -0.00057903       0.00088087
N       -1.36381434      -0.65272137       0.76310928      -0.00135103      -0.00068875       0.00026119
O       -1.64353757       0.59260015       1.12431084       0.00017287      -0.00115275       0.00057167
O       -2.21594642      -0.81178372      -1.11670831       0.00054634      -0.00032546       0.00020522
H        2.90139954      -0.17090701       1.44147077      -0.00057942       0.00045528      -0.00192964
H        3.46302713      -1.15392444       0.24954384      -0.00022167       0.00038081       0.00079636
H        2.51215536       1.11431491      -0.53103891       0.00149378       0.00064147       0.00162685
H        1.99909747      -0.38144422      -1.33125765       0.00151241      -0.00060768      -0.00006297
H       -0.49103902       1.90151535      -0.38670065       0.00026393       0.00112686      -0.00057913
H        0.35302104      -1.61378783       0.27975697      -0.00034777      -0.00135840      -0.00055496
H       -2.50949715       0.52519792       1.54885222      -0.00066510       0.00179619      -0.00035782
H       -0.76791674      -0.83188397      -1.01670568      -0.00053212       0.00030040       0.00100966
H       -3.03285006      -0.91545382      -1.62868429      -0.00141174      -0.00012201      -0.00086987
