25
Properties=species:S:1:pos:R:3:forces:R:3 charge=0 spin=1 energy=-31685.765625 stress="-6.307306343877883e-10 1.7301421406656914e-10 -1.5458651025923587e-10 1.7301421406656914e-10 1.6009166214914217e-10 7.327326939643442e-11 -1.5458651025923587e-10 7.327326939643442e-11 -1.403521632248328e-09" free_energy=-31685.765625 pbc="F F F"
O       -3.12187376      -2.22008054      -1.75355744      -0.00050783       0.00031479      -0.00213897
N       -2.66099308      -2.19984214      -0.76223417       0.00064594      -0.00005120       0.00204593
C       -1.27784409       1.01496461      -0.28017190      -0.00075984      -0.00005555      -0.00021482
C       -1.18175220       2.08275473       0.73965547      -0.00008354       0.00077370      -0.00002518
F        0.07995826       2.72544723       0.75436845       0.00026172       0.00005472       0.00010259
S       -0.40442772      -0.40377370       0.05526673      -0.00000528      -0.00075406      -0.00060099
O       -0.76885422      -1.38407305      -0.99911967      -0.00001550       0.00081068       0.00036648
O       -0.66135884      -0.79264600       1.42917048       0.00015651      -0.00033310       0.00069726
C        1.33511468      -0.17243233      -0.12228300       0.00062644      -0.00061172       0.00073006
C        1.87450855      -0.03349378      -1.39363527       0.00057758       0.00125035       0.00010616
C        3.24128496       0.13747987      -1.53122199      -0.00034636      -0.00041776       0.00003597
C        4.05381658       0.16750995      -0.40396521       0.00002937       0.00057418       0.00006899
C        3.50248065       0.03111261       0.86172983      -0.00045945      -0.00047416       0.00028297
C        2.13237852      -0.13182216       1.00920993       0.00007382       0.00015284      -0.00024742
O       -3.39950110      -0.53597819       0.21843974       0.00043571      -0.00153434       0.00051704
H       -1.15384201       1.32877696      -1.31449141      -0.00016453       0.00017728      -0.00031984
H       -1.91446373       2.86867248       0.55092069       0.00006030      -0.00047334       0.00029080
H       -1.33743901       1.68054951       1.74175890      -0.00016379      -0.00004436       0.00003046
H        1.23009011      -0.07773246      -2.26188368      -0.00097784       0.00010673      -0.00040047
H        3.67431377       0.24162419      -2.51722649       0.00084802      -0.00063387      -0.00133869
H        5.12260023       0.29688862      -0.51484249       0.00001302      -0.00032020      -0.00011690
H        4.13764011       0.05254977       1.73728151       0.00015941       0.00073339       0.00092942
H        1.67764488      -0.23954508       1.98416070       0.00022258      -0.00067467      -0.00006647
H       -2.65268966       0.19800818      -0.05877284      -0.00043267      -0.00010828      -0.00031590
H       -3.10977186      -0.76172927       1.11644309      -0.00019436       0.00153813      -0.00041893
