22
Properties=species:S:1:pos:R:3:forces:R:3 charge=0 spin=1 energy=-15633.8017578125 stress="1.5961024169008908e-10 4.739633685524325e-10 4.769416528382919e-10 4.739633685524325e-10 9.298116165901149e-10 -4.616328708184625e-10 4.769416528382919e-10 -4.616328708184625e-10 -2.693438805323467e-10" free_energy=-15633.8017578125 pbc="F F F"
C       -1.75807619      -0.10947959       0.47566003      -0.00005721       0.00041747       0.00012632
O       -1.67224257      -1.35084064       1.11183633      -0.00047570       0.00076932      -0.00071836
O       -2.43155393      -0.23728289      -0.75802931       0.00047004       0.00185280       0.00048392
C       -3.84131807      -0.07732721      -0.64701684       0.00085619      -0.00093473       0.00028619
C       -0.51988150       0.65033562       0.25478446      -0.00010929      -0.00020209       0.00021090
O       -0.86781363       1.88299897       0.31695736      -0.00010952      -0.00018623       0.00044760
C        0.86882634       0.27051613       0.07746904       0.00027540       0.00013828       0.00038780
C        1.21219281      -1.06244950      -0.14713775       0.00035983       0.00119737      -0.00068564
C        2.53768686      -1.40853004      -0.34338398       0.00000578      -0.00053942       0.00045093
C        3.52040376      -0.42718521      -0.31664536       0.00058034      -0.00095617       0.00078768
C        3.18289458       0.90214127      -0.09126577      -0.00013900      -0.00033683      -0.00068167
C        1.86039557       1.25288159       0.10747950      -0.00002781       0.00024518       0.00049135
H       -1.89215854       1.43146447       0.70225642       0.00012392       0.00020945      -0.00020865
H       -1.86687938      -2.02326751       0.44340454      -0.00007197       0.00115316       0.00057161
H       -4.26871452      -0.37183794      -1.60381351      -0.00009286      -0.00016154      -0.00145714
H       -4.24800400      -0.71043296       0.14484502      -0.00062271      -0.00133687      -0.00000197
H       -4.09611883       0.96391050      -0.43434613       0.00032305      -0.00111680       0.00083871
H        0.43782416      -1.81527954      -0.16345012       0.00016981       0.00050879       0.00012649
H        2.80685695      -2.44166977      -0.51637643      -0.00076399      -0.00039783      -0.00019971
H        4.55641953      -0.70017033      -0.47029585       0.00101730       0.00010631      -0.00118364
H        3.95342287       1.66110298      -0.06656523      -0.00045508      -0.00128500       0.00055091
H        1.57485774       2.28044160       0.29008360      -0.00125647       0.00085598      -0.00062369
