15
Properties=species:S:1:pos:R:3:forces:R:3 charge=0 spin=1 energy=-79895.3984375 stress="-8.120923378207578e-11 -4.721206092739294e-09 7.529554202356792e-10 -4.721206092739294e-09 1.3082743777204087e-09 2.2001951371919404e-09 7.529554202356792e-10 2.2001951371919404e-09 1.9437185194703943e-09" free_energy=-79895.3984375 pbc="F F F"
O       -2.37253561      -1.15009296      -1.33502297      -0.00142412      -0.00022274       0.00089085
C       -2.46254224      -1.16728466      -0.13060264      -0.00067541      -0.00037685      -0.00034964
C       -2.48949682       0.01570730       0.75858739       0.00072691      -0.00022982      -0.00113216
C       -2.18819383       1.32616578       0.50066279       0.00002457      -0.00075877      -0.00063914
C       -1.15806891       1.76802625      -0.33487625       0.00000906      -0.00021321      -0.00056905
C       -0.31451292       0.93312537      -1.04240858       0.00039268       0.00059620       0.00002386
C        0.42572619      -0.24509570       0.42496158       0.00011110       0.00094765      -0.00158048
Br       2.25925626      -0.25222645       0.09138816      -0.00019115       0.00046317      -0.00064349
N       -0.31802692      -0.77018557       1.17860028      -0.00188893      -0.00063872       0.00139362
H       -2.60625435      -2.11880975       0.40870566       0.00071643      -0.00044531       0.00089790
H       -3.01438685      -0.18902296       1.68620391      -0.00058027       0.00130399      -0.00024286
H       -2.58912575       2.05680399       1.19366161       0.00091167      -0.00175765       0.00076990
H       -0.86815443       2.80694091      -0.22542984       0.00090359      -0.00053084      -0.00096369
H       -0.70159952       0.04469970      -1.51986297       0.00031014       0.00034021       0.00062373
H        0.55320573       1.37883876      -1.51007812       0.00065364       0.00152254       0.00152053
