14
Properties=species:S:1:pos:R:3:forces:R:3 charge=0 spin=1 energy=-15133.4658203125 stress="5.139880965288057e-09 -5.611849873687902e-10 2.744240390484265e-10 -5.611849873687902e-10 3.087936795154178e-09 1.5935115449394743e-09 2.744240390484265e-10 1.5935115449394743e-09 -7.924082501276075e-10" free_energy=-15133.4658203125 pbc="F F F"
O       -1.27945224       1.57249271       0.89796780      -0.00004141      -0.00114369      -0.00011092
C       -0.70410582       0.84059480       0.18411703       0.00031501      -0.00147045      -0.00049400
O       -1.47250652      -0.12600459      -0.70951183       0.00033122      -0.00024977      -0.00144460
C       -2.44269393      -1.05439084      -0.17239958       0.00019604      -0.00048625       0.00003010
C        0.61162163       0.56958986      -0.36429168      -0.00007091      -0.00000006       0.00127034
F        1.42279330       1.65783013      -0.42873329      -0.00057089       0.00055286       0.00115803
C        1.32429412      -0.62359313       0.10318061      -0.00032771      -0.00008819       0.00010873
O        2.51641819      -0.73935198       0.15166016      -0.00006104       0.00020605      -0.00138990
O        0.48474851      -1.64783841       0.45641155      -0.00056013       0.00018978       0.00015564
H       -0.45592908      -0.22468381      -1.21741522       0.00045437       0.00056243      -0.00217181
H       -1.92361564      -1.89408667       0.27912733       0.00210405       0.00070783       0.00106492
H       -3.08180840      -1.36950384      -0.99139181      -0.00065473       0.00128596       0.00155484
H       -3.01884082      -0.50382556       0.56730417       0.00077149      -0.00032951      -0.00082333
H        1.07223672      -2.37211868       0.71520477      -0.00188574       0.00026307       0.00109186
