24
Properties=species:S:1:pos:R:3:forces:R:3 charge=0 spin=1 energy=-18696.76953125 stress="7.183676764555003e-09 -2.3010149341473607e-09 1.5865693203664932e-09 -2.3010149341473607e-09 -2.490943840083304e-10 1.1633322083426378e-09 1.5865693203664932e-09 1.1633322083426378e-09 -2.059861170522481e-09" free_energy=-18696.76953125 pbc="F F F"
C        1.48355683       2.11606128       0.57717998      -0.00117874       0.00012949      -0.00041200
O        1.88671486       1.56761855      -0.66363009      -0.00017849       0.00114353       0.00029516
C        2.62587973       0.38035491      -0.49597130      -0.00054460       0.00034899      -0.00036855
C        1.75613447      -0.82151794      -0.12018439      -0.00058806       0.00033605      -0.00087112
O        2.16165100      -1.70313359       0.60144415      -0.00113404      -0.00080639      -0.00000376
O        0.56912676      -0.81863121      -0.68318379      -0.00079644      -0.00046116      -0.00073269
C       -1.14868283      -1.18620753       0.31923316       0.00075001      -0.00010967       0.00131249
C       -1.57946593      -2.34039419      -0.49245863       0.00061306       0.00026926      -0.00043689
O       -1.08904522      -0.87712760       1.42981269      -0.00102639       0.00092742       0.00098640
O       -1.45325157       0.22706140      -0.77882654       0.00084242      -0.00103310      -0.00048870
O       -1.59866287       1.38728978       0.01167630       0.00053638      -0.00084499      -0.00117286
C       -2.99593546       1.57876553       0.16818097       0.00080058      -0.00083409       0.00048190
H        0.90154518       3.00891137       0.36061835       0.00051238       0.00113346       0.00075115
H        0.85712761       1.42160227       1.14664606      -0.00079825      -0.00097283       0.00114465
H        2.35437077       2.38521203       1.18515720       0.00040133       0.00012727       0.00049844
H        3.09900833       0.16043746      -1.45465538       0.00056171       0.00082427      -0.00083185
H        3.40672466       0.48875218       0.26237932      -0.00114912      -0.00104082      -0.00037868
H       -1.43410196      -2.14800885      -1.54849090       0.00008600       0.00010106      -0.00063083
H       -2.62978848      -2.53515599      -0.27351300      -0.00020662       0.00062446       0.00073344
H       -0.96686358      -3.18571401      -0.18467412      -0.00036771      -0.00031404       0.00097037
H       -0.37945992       0.12860404      -0.94113553       0.00175131       0.00104192       0.00014172
H       -3.08211043       2.49583449       0.74778385       0.00099164       0.00011598      -0.00125194
H       -3.44576687       0.75113897       0.72069286       0.00061567      -0.00062069      -0.00029112
H       -3.48028511       1.69679665      -0.80153122      -0.00049424      -0.00008501       0.00055562
