28
Properties=species:S:1:pos:R:3:forces:R:3 charge=0 spin=1 energy=-31311.111328125 stress="-1.5073972070567265e-09 1.1018564949338838e-09 1.8523567402173313e-10 1.1018564949338838e-09 2.515130326230519e-09 9.998377681341708e-10 1.8523567402173313e-10 9.998377681341708e-10 4.888985882800512e-10" free_energy=-31311.111328125 pbc="F F F"
O       -0.11688181      -0.81061543       2.22542224       0.00026172       0.00024441       0.00002083
C        0.56152011      -0.85895709       1.14967454      -0.00057513      -0.00040209      -0.00012152
C        1.26984731      -1.95411627       0.60686834       0.00008032      -0.00048003       0.00012628
C        2.36723622      -1.64444174      -0.14842458       0.00101787       0.00044894       0.00156969
C        3.27345829      -2.72453402      -0.66151158       0.00005677       0.00062235       0.00004936
C        2.73056068      -0.28370845      -0.42363609       0.00036648       0.00012749       0.00016361
C        1.93858486       0.75486170      -0.05253770      -0.00034928      -0.00051826       0.00007659
Cl       2.40966661       2.35550015      -0.45842404      -0.00004792      -0.00120842      -0.00038421
C        0.69019471       0.49594571       0.62575473      -0.00051987      -0.00049773      -0.00003980
C       -0.56063465       1.21434279       0.14376741      -0.00065259      -0.00074601       0.00041071
O       -0.55810154       2.40658583      -0.02995030      -0.00105358      -0.00086212      -0.00060762
C       -1.80402617       0.41156261      -0.10381614      -0.00051802       0.00019085      -0.00012842
C       -3.02597596       1.00627112       0.19582604      -0.00002629       0.00021201      -0.00043306
C       -4.20753587       0.33502743      -0.06673512       0.00029810       0.00025933      -0.00046739
C       -4.17502285      -0.92278533      -0.65473369       0.00009522       0.00010295       0.00076417
C       -2.96000035      -1.50680367      -0.98047740      -0.00030477       0.00053412       0.00022948
C       -1.77503846      -0.84349757      -0.69977687      -0.00007623       0.00092329      -0.00116134
H        0.17115531       0.50058843       1.93252534      -0.00039124       0.00003052      -0.00060436
H        1.04687379      -2.96587667       0.91840330      -0.00018090      -0.00058758      -0.00024560
H        4.26813196      -2.62114335      -0.22464631       0.00036313      -0.00053061      -0.00121984
H        2.89018210      -3.71351668      -0.42012205       0.00118919       0.00057551       0.00058674
H        3.38615158      -2.64911861      -1.74404629      -0.00030616       0.00139479       0.00001713
H        3.64581680      -0.08459641      -0.96338808       0.00125656      -0.00082533       0.00027914
H       -3.03261240       1.99559335       0.63381676       0.00057779      -0.00013730       0.00016961
H       -5.15550656       0.79406488       0.18133527       0.00021283      -0.00060142      -0.00026879
H       -5.09914648      -1.44508518      -0.86647522       0.00026667       0.00027459       0.00057870
H       -2.93488227      -2.48000754      -1.45330745      -0.00048283       0.00087808       0.00055969
H       -0.82958499      -1.29803000      -0.96770506      -0.00055818       0.00057720       0.00008036
