29
Properties=species:S:1:pos:R:3:forces:R:3 charge=0 spin=1 energy=-29513.078125 stress="2.4374320339859423e-09 4.483746152139645e-10 -1.6915996381428045e-10 4.483746152139645e-10 -6.808951735770563e-10 2.7385180234595907e-10 -1.6915996381428045e-10 2.7385180234595907e-10 5.152536730612667e-10" free_energy=-29513.078125 pbc="F F F"
N        4.33160691      -1.25008622       0.18983248      -0.00050649      -0.00088534      -0.00020278
C        3.74776163      -0.20636690       1.01253186       0.00003079      -0.00048119      -0.00053129
C        2.78975803       0.76339246       0.30361106       0.00033501      -0.00019729      -0.00036553
S        1.21219098      -0.01440716       0.00942615      -0.00017631       0.00073290       0.00051832
O        1.46685872      -1.19229819      -0.79333618      -0.00116459       0.00029051       0.00037026
O        0.53975584      -0.15627250       1.27682006      -0.00003141       0.00017909       0.00126684
C        0.36635854       1.20671779      -0.93818404       0.00007980       0.00092259       0.00026327
N       -1.01276902       1.34776462      -0.88328850      -0.00088349       0.00098974      -0.00045320
C       -1.89265518       0.36941227      -0.32775619      -0.00033122       0.00047968      -0.00077032
C       -1.79441783      -0.91356294      -0.86032166       0.00181795      -0.00007397       0.00006147
C       -2.70280801      -1.88142815      -0.46903724       0.00098994      -0.00043008       0.00085286
C       -3.70307990      -1.58558613       0.44588036      -0.00027372      -0.00039814      -0.00004628
C       -3.78988948      -0.30507054       0.96733330       0.00131327      -0.00100368       0.00010353
C       -2.89342719       0.67903592       0.58018045      -0.00054151      -0.00058231      -0.00024545
O       -0.97294595       2.66097691       0.22154898      -0.00133866       0.00055343       0.00016922
H        3.59715617      -1.78273970      -0.26123794      -0.00079709      -0.00088972       0.00040737
H        4.90705408      -0.85044074      -0.54088727      -0.00091010      -0.00088359       0.00023186
H        4.55439350       0.38372914       1.45217670      -0.00088860       0.00082091       0.00001681
H        3.21812420      -0.66943537       1.84793513       0.00008688       0.00072322      -0.00028329
H        2.57876302       1.63860083       0.91978137       0.00172900       0.00051989      -0.00143691
H        3.18617764       1.08327329      -0.66250500       0.00101970      -0.00082286      -0.00004606
H        0.79832171       1.36386464      -1.92281302      -0.00006808       0.00011004       0.00044597
H       -1.00645254      -1.15281663      -1.56106212      -0.00067201       0.00064123      -0.00061704
H       -2.61653598      -2.87942767      -0.87832243       0.00068951       0.00144255      -0.00006901
H       -4.40516057      -2.34905459       0.75319139       0.00068179      -0.00140704       0.00003430
H       -4.55752714      -0.06403514       1.69108964      -0.00084276       0.00076583      -0.00064562
H       -2.94997246       1.67142146       1.00005775       0.00052948      -0.00003409      -0.00035357
H        0.14995265       2.38535373      -0.11655930       0.00031507      -0.00069021       0.00128794
H       -1.30819238       3.40898554      -0.29894578      -0.00019243      -0.00039191       0.00003612
