27
Properties=species:S:1:pos:R:3:forces:R:3 charge=0 spin=1 energy=-24752.349609375 stress="-1.1073024719365776e-09 5.896835797436495e-11 -4.35875613380432e-10 5.896835797436495e-11 6.711747269072532e-10 -3.580997165464339e-10 -4.35875613380432e-10 -3.580997165464339e-10 -9.548087320787602e-11" free_energy=-24752.349609375 pbc="F F F"
C        2.09767737       2.50866658       0.31222131       0.00053747      -0.00028835      -0.00013951
O        1.81405874       1.40672434      -0.55552271      -0.00005972      -0.00007543      -0.00043093
C        0.76819674       0.60284394      -0.16770766      -0.00015353       0.00043333       0.00036883
N        2.91320980      -1.89784916      -0.18128005       0.00062573       0.00004089      -0.00083548
O        3.98779629      -1.71593528      -0.31766219       0.00018740       0.00091759      -0.00014383
C       -0.60512720       1.18217516      -0.34264705      -0.00035957      -0.00000238      -0.00032347
O       -0.72364320       2.33209376      -0.70936390      -0.00067253      -0.00037193       0.00059474
C       -1.80099184       0.29646262      -0.19334719      -0.00092581       0.00028488      -0.00089796
C       -3.02854829       0.90591035       0.04634160      -0.00019509       0.00105076      -0.00054555
C       -4.17569647       0.14116865       0.16614993      -0.00006256      -0.00033079       0.00047001
C       -4.10500551      -1.23877933       0.03091755      -0.00002225      -0.00044960      -0.00242456
C       -2.88574597      -1.84981202      -0.22457462      -0.00029217       0.00044289      -0.00152337
C       -1.73481167      -1.08547917      -0.32921393      -0.00006144       0.00046259       0.00057636
N        1.03869417      -0.07258973       1.08811084      -0.00017846       0.00041875       0.00045347
O        2.22876232      -0.42629600       1.26903174       0.00004038       0.00005615       0.00016129
O        0.15200881      -0.34329971       1.86924012       0.00060600       0.00017123       0.00051662
O        1.90312429      -1.14078569      -1.63645548      -0.00125003      -0.00037849       0.00139672
H        1.21893471       3.14175471       0.42368455       0.00088327      -0.00023895      -0.00030445
H        2.89702978       3.07005862      -0.16456351       0.00108925      -0.00134356       0.00004420
H        2.44449968       2.14945182       1.28428971      -0.00046879       0.00027017       0.00016449
H       -3.06524827       1.98305266       0.13652863      -0.00097179       0.00131613       0.00152314
H       -5.12608179       0.62013974       0.36253350       0.00075158      -0.00105223      -0.00013571
H       -5.00146407      -1.83878132       0.12077375      -0.00051737      -0.00060898       0.00042578
H       -2.82907572      -2.92437922      -0.33873319       0.00127930       0.00056872       0.00109820
H       -0.79146831      -1.57612451      -0.52805739       0.00018370      -0.00059748       0.00091533
H        1.15157388      -0.46526347      -1.03700834      -0.00035854      -0.00049159      -0.00058088
H        2.45582172      -0.44382835      -2.02758601       0.00036531      -0.00020452      -0.00042339
