17
Properties=species:S:1:pos:R:3:forces:R:3 charge=0 spin=1 energy=-11942.04296875 stress="-2.3038817520415478e-09 8.497236803073349e-10 1.4267885761753973e-09 8.497236803073349e-10 1.0666830752015244e-09 -1.032221863539462e-09 1.4267885761753973e-09 -1.032221863539462e-09 -5.645694467482087e-10" free_energy=-11942.04296875 pbc="F F F"
N        3.41558203      -1.35755974      -0.59513789       0.00131083      -0.00050254      -0.00002293
C        2.46069722      -0.92346734      -0.12441440      -0.00049013      -0.00018543      -0.00122106
C        1.26724406      -0.36593100       0.45729563       0.00042328      -0.00030631      -0.00067754
C        0.02549199      -0.94362312       0.13075853       0.00024413      -0.00007986       0.00037140
C       -1.15443083      -0.30649889       0.39631123      -0.00063318       0.00001878       0.00041817
C       -2.40396453      -0.82780788      -0.18892082       0.00020814       0.00025168      -0.00002763
O       -3.47829121      -0.29616006      -0.05210060      -0.00006473      -0.00016671      -0.00011012
C       -0.77504897       1.68045332      -0.69861518      -0.00016123      -0.00069042      -0.00066185
C        0.33729588       2.10339907      -0.40007134      -0.00069216       0.00050116       0.00076389
C        1.33119312       0.87202715       1.05832651       0.00006616       0.00005421      -0.00011724
H        0.01508353      -1.80272725      -0.53092143      -0.00014311       0.00008157       0.00023288
H       -1.27905170       0.40887771       1.19735445      -0.00206923       0.00011188       0.00015137
H       -2.29281773      -1.74030050      -0.80675646       0.00087262       0.00074299      -0.00053425
H       -1.74817470       1.63638513      -1.13490779      -0.00023964       0.00011428       0.00130880
H        1.13620910       2.80765442      -0.47421055       0.00140618      -0.00155398      -0.00117482
H        0.56075504       1.18811809       1.74521650       0.00071353       0.00005959       0.00029044
H        2.29239769       1.35312090       1.17592361      -0.00075155       0.00154868       0.00101040
