22
Properties=species:S:1:pos:R:3:forces:R:3 charge=0 spin=1 energy=-13591.8232421875 stress="2.138495158732212e-09 -9.720927396372758e-10 1.121185033703398e-09 -9.720927396372758e-10 2.237992013931489e-09 -2.125189607626865e-10 1.121185033703398e-09 -2.125189607626865e-10 -8.71567817917196e-11" free_energy=-13591.8232421875 pbc="F F F"
C       -0.27178898      -0.79517164       0.12624826       0.00041246       0.00058240       0.00051126
C       -1.13220710      -0.05678710      -0.85587431       0.00020437       0.00004695       0.00056697
C       -2.52693595       0.05688681      -0.22521905      -0.00018477      -0.00053692       0.00005116
C       -2.81361419       1.29773768       0.57185712       0.00017595      -0.00053912       0.00037739
O       -3.32078919      -0.83596864      -0.36810388      -0.00044754      -0.00020581      -0.00029986
C        0.47979694      -0.13801813       1.13039239       0.00025094       0.00115308       0.00032204
C        1.66721355      -0.61959998      -0.05501550       0.00031251       0.00000221      -0.00018081
O        2.52906551      -1.40002310       0.37283754      -0.00093579      -0.00048995       0.00034624
O        1.91852023       0.56693846      -0.77439067       0.00095427      -0.00057828      -0.00017679
C        2.93045195       1.33800413      -0.13543700       0.00045407      -0.00059271       0.00062788
H        0.92152746      -1.13427252      -0.86921662      -0.00029959      -0.00026173       0.00087777
H       -0.46708290      -1.85628255       0.24703611      -0.00114614       0.00059232      -0.00119006
H       -0.69243255       0.92049215      -1.05187151       0.00103846      -0.00075293       0.00018924
H       -1.23902956      -0.61836965      -1.78167261       0.00037853       0.00227499      -0.00067976
H       -3.79579712       1.22818035       1.03113835       0.00037226      -0.00130957       0.00015812
H       -2.04927859       1.43574587       1.33884748      -0.00024640      -0.00003733       0.00069363
H       -2.77105990       2.16631409      -0.08842565       0.00066669      -0.00045093       0.00030292
H        0.40514209       0.93921664       1.18904925       0.00051673       0.00150153      -0.00131413
H        0.70901742      -0.67003687       2.04101707      -0.00017451      -0.00025111      -0.00003216
H        2.63881621       1.60123370       0.88572683      -0.00207646       0.00112110      -0.00024812
H        3.04040931       2.24248114      -0.72853926      -0.00088458      -0.00150847      -0.00089183
H        3.87021537       0.78838917      -0.10160433       0.00065811       0.00024045      -0.00001137
