25
Properties=species:S:1:pos:R:3:forces:R:3 charge=0 spin=1 energy=-18156.939453125 stress="-1.3836677636991368e-10 2.148871219853632e-10 -5.588422433144835e-11 2.148871219853632e-10 -5.509837031070219e-10 3.727566866285059e-10 -5.588422433144835e-11 3.727566866285059e-10 5.940056779785152e-11" free_energy=-18156.939453125 pbc="F F F"
C        4.07417492      -0.49470452       0.53908498      -0.00054160      -0.00051491      -0.00026448
O        3.47292442      -0.46259758      -0.74044861      -0.00091811       0.00030673      -0.00004476
C        2.27567150       0.25690469      -0.76853607       0.00071567       0.00044379       0.00026619
C        1.07548716      -0.44495881      -0.12655773       0.00066310       0.00088966      -0.00093329
O        1.17596068      -1.50599660       0.46217749       0.00039867      -0.00179207       0.00157553
O       -0.02893081       0.22511453      -0.27534744      -0.00120366       0.00072303      -0.00070935
C       -1.88189850      -0.46616194       0.50268815       0.00025645       0.00132439       0.00142968
C       -1.79329342      -1.84710396      -0.00782280      -0.00048625       0.00051402      -0.00036480
O       -2.11811470       0.04927222       1.51805241      -0.00011194      -0.00052327      -0.00077733
O       -2.29988154       0.50312691      -0.84986603       0.00019544       0.00039697       0.00041074
N       -2.86487998       1.78628587      -0.49864375       0.00025347      -0.00013101      -0.00013501
C       -1.80594996       2.73374153      -0.14458369      -0.00027460      -0.00007002      -0.00033289
H        4.25817764       0.52296530       0.90594468       0.00005464       0.00062344      -0.00013702
H        5.02813387      -1.00610545       0.42941504       0.00029059      -0.00003716       0.00025280
H        3.45358437      -1.03261623       1.25726043       0.00021566      -0.00015125      -0.00035495
H        2.03120235       0.44099948      -1.81600023       0.00024267      -0.00011456       0.00028631
H        2.38021497       1.23781431      -0.28279672       0.00005253      -0.00052164       0.00001135
H       -1.56554672      -1.86119162      -1.06800272       0.00001051      -0.00017032      -0.00054551
H       -0.98987819      -2.33518763       0.53899339       0.00070588      -0.00086530       0.00028630
H       -2.75108933      -2.33252826       0.18355412      -0.00028498      -0.00021490       0.00005348
H       -1.31454292       0.62542256      -1.05641278      -0.00013688       0.00009966      -0.00011125
H       -3.38618087       1.56165490       0.34788273      -0.00002462      -0.00016608       0.00004876
H       -2.32118072       3.63745185       0.17808076       0.00004135       0.00002684      -0.00006841
H       -1.13694012       2.38347918       0.64146289      -0.00012942      -0.00008032      -0.00006385
H       -1.22744410       2.97228927      -1.03636850       0.00001508       0.00000440       0.00022183
