19
Properties=species:S:1:pos:R:3:forces:R:3 charge=0 spin=1 energy=-13646.078125 stress="-2.440882496124175e-10 2.143585135783166e-11 -1.104241809102291e-09 2.143585135783166e-11 8.599049250435087e-10 -8.514564053818674e-10 -1.104241809102291e-09 -8.514564053818674e-10 -4.1752870605371584e-10" free_energy=-13646.078125 pbc="F F F"
C        1.19693728      -0.63313508      -0.52931986      -0.00043344      -0.00039276       0.00006266
N        1.83821585       0.34245682       0.04782095      -0.00033695      -0.00063272       0.00027388
C        2.95014315       0.14849891       0.96283470       0.00038259      -0.00000416      -0.00035728
C       -0.09782465      -0.33796391      -1.21090190      -0.00004633       0.00022361      -0.00051534
F       -0.17898893       1.00296949      -1.54435341      -0.00032965       0.00003574      -0.00059564
C       -0.92391347      -0.81499800       0.01263892       0.00034654       0.00045842      -0.00030124
O       -1.91766126      -1.55441772      -0.12382927       0.00122976       0.00092268      -0.00102483
O       -0.94469067       0.31714745       0.92565829       0.00015754      -0.00014848       0.00040048
C       -2.17373126       1.02325850       0.81742120       0.00014651      -0.00048053       0.00075918
H        0.06396609      -1.38854343       0.55185057      -0.00024238       0.00056263       0.00005123
H        1.68821648      -1.58979977      -0.64691414      -0.00005597       0.00012857       0.00037305
H        1.33579656       1.22149617       0.09115314       0.00024757      -0.00007251       0.00039066
H        3.54213589      -0.70515413       0.63762531       0.00057578       0.00006223       0.00003714
H        3.57946156       1.03525942       0.96581605      -0.00017181       0.00032701       0.00042409
H        2.57635811      -0.03699662       1.97083273       0.00008947      -0.00002284      -0.00010225
H       -0.28602582      -0.94622927      -2.09329704      -0.00124471      -0.00070849       0.00028931
H       -3.01537926       0.35754107       1.00572877      -0.00107685      -0.00032075      -0.00022939
H       -2.29033455       1.47198853      -0.17298668       0.00081646      -0.00069349       0.00030456
H       -2.14189109       1.81002156       1.56972165      -0.00005405       0.00075635      -0.00024009
