22
Properties=species:S:1:pos:R:3:forces:R:3 charge=0 spin=1 energy=-14055.9306640625 stress="2.4175554891314732e-09 -5.7996552005334934e-11 -5.527342139544089e-09 -5.7996552005334934e-11 -1.8191380624088538e-09 6.999660573381306e-11 -5.527342139544089e-09 6.999660573381306e-11 1.400193738732014e-09" free_energy=-14055.9306640625 pbc="F F F"
C       -2.14670979      -1.28764470       0.45008304      -0.00019525       0.00022000      -0.00015134
C       -2.05366196       0.09851618      -0.14015264      -0.00075960       0.00060952      -0.00044415
O       -2.97106419       0.88272343      -0.07827312       0.00039726       0.00051183      -0.00137356
C       -0.78995555       0.47740984      -0.85657724      -0.00044185       0.00112331       0.00033749
C        0.06778554       1.24902537       1.07581694       0.00069824      -0.00004685      -0.00103964
C        1.18139908       1.82548003       0.49639354      -0.00004178      -0.00028569       0.00116986
C        2.07695229       1.15812614      -0.33648147      -0.00004238      -0.00127107       0.00155121
C        1.93970920      -0.19491180      -0.63004000       0.00040990       0.00007209       0.00026547
C        1.76754709      -1.20755508       0.45221335      -0.00028631       0.00017023      -0.00016534
O        1.57605992      -2.38107614       0.24562669      -0.00090042      -0.00094581       0.00039181
N        0.06197985      -0.40519730      -1.32770993      -0.00020868       0.00003587       0.00001501
H       -2.96733718      -1.30574555       1.16196704       0.00034866      -0.00062966      -0.00071537
H       -1.22241336      -1.60452628       0.93587948       0.00036781       0.00045917       0.00009832
H       -2.35880873      -2.00477630      -0.34693891       0.00000221      -0.00129717       0.00056212
H       -0.80988582       1.47051394      -1.29266998      -0.00158503      -0.00039446       0.00077812
H        0.03714995       0.20952486       1.36243635       0.00160369       0.00064200      -0.00015664
H       -0.66721261       1.87926147       1.55903762       0.00075331      -0.00024568      -0.00084254
H        1.24308053       2.90815870       0.51206195       0.00022247       0.00007451       0.00037773
H        2.71465652       1.76007497      -0.97091190      -0.00080836       0.00043246      -0.00067666
H        2.46705569      -0.59087661      -1.48980721      -0.00098412       0.00050320      -0.00055596
H        1.86389224      -0.82037420       1.48263221       0.00058884       0.00045716       0.00056691
H       -0.12226871      -1.33820098      -0.96158581       0.00086135      -0.00019497       0.00000695
