21
Properties=species:S:1:pos:R:3:forces:R:3 charge=0 spin=1 energy=-27319.71875 stress="-2.447527513993464e-09 1.45686529506861e-09 2.7162851967688084e-09 1.45686529506861e-09 -2.5199835551603655e-09 2.1086214996302033e-09 2.7162851967688084e-09 2.1086214996302033e-09 -2.9719473548794895e-09" free_energy=-27319.71875 pbc="F F F"
C       -1.91484578      -1.75063684       0.60640778       0.00043900      -0.00000167      -0.00070107
S       -1.62092809      -0.15812157      -0.10267305      -0.00031245       0.00016868      -0.00015646
O       -2.23270625       0.82885840       0.73639375      -0.00086063       0.00004375       0.00065154
O       -1.92253321      -0.22318999      -1.50357797       0.00055549       0.00137778      -0.00031936
C        0.20935540      -0.03305224       0.06828909      -0.00039589       0.00011557      -0.00014976
N        0.78581282       1.03462261      -0.60202859      -0.00078513      -0.00044043      -0.00111336
O       -0.03612219       2.04018936      -0.68234777       0.00046530       0.00059956      -0.00124589
N        0.85224995      -1.29412576      -0.19912263       0.00013715       0.00019855      -0.00019008
C        2.19341334      -1.23352507      -0.77434195       0.00014079      -0.00016958      -0.00021356
O        3.16653151      -0.75903383       0.10972894       0.00045675       0.00050405      -0.00001860
O        1.73013273       1.28763815       1.31905036       0.00001830      -0.00138190       0.00093722
H       -1.54849088      -1.76349905       1.63117658      -0.00043001      -0.00076853      -0.00026082
H       -2.99935781      -1.85185509       0.59942122      -0.00000034      -0.00027361       0.00219657
H       -1.44904143      -2.51275518      -0.00981638      -0.00024184       0.00000103       0.00008029
H        0.45178705       2.74088346      -1.14341992       0.00099406       0.00065319      -0.00009218
H        0.91501296      -1.81887989       0.66568953       0.00140741      -0.00066978      -0.00013286
H        2.13598419      -0.64131648      -1.69018152       0.00006647      -0.00057133      -0.00049126
H        2.47078541      -2.25438832      -1.03523270       0.00004786      -0.00053976       0.00023916
H        2.83938338       0.07452808       0.51177909       0.00095995       0.00076878       0.00026849
H        0.50258512       0.40211835       1.15056562      -0.00189193       0.00038667       0.00090176
H        2.22887179       1.89167089       1.88806052      -0.00076982      -0.00000083      -0.00019044
