21
Properties=species:S:1:pos:R:3:forces:R:3 charge=0 spin=1 energy=-86313.09375 stress="5.949176706820936e-10 -4.380099061229714e-10 -1.0012248669033497e-10 -4.380099061229714e-10 -2.9257732347964804e-10 -3.7534722552301503e-10 -1.0012248669033497e-10 -3.7534722552301503e-10 -1.9900536774031252e-10" free_energy=-86313.09375 pbc="F F F"
C        1.98607336       0.92007050       0.33625655       0.00081009       0.00061524       0.00034010
Br       3.09406526      -0.54440899       0.04662300      -0.00087577      -0.00116575       0.00053039
C        0.73217147       0.81457945       0.98303660      -0.00009431       0.00036430      -0.00124633
F        0.35274369      -0.43665077       1.32663655       0.00011650       0.00078772       0.00103891
C        0.28554781       1.35729659      -0.61133883       0.00054467       0.00081205      -0.00054318
O       -0.02639332       2.55732423      -0.65336828      -0.00101179       0.00030839       0.00047635
O       -0.41082703       0.26094482      -1.13699394       0.00039667       0.00027394       0.00001045
C       -1.64874739      -0.02345645      -0.57547207       0.00086829       0.00000888       0.00068533
C       -2.11818579      -1.31017569      -0.79546471      -0.00061819       0.00050543      -0.00090605
C       -3.35135982      -1.67915358      -0.28722353      -0.00053301       0.00028273      -0.00074276
C       -4.10960219      -0.77155741       0.44169299       0.00015110      -0.00063841       0.00084152
C       -3.62606248       0.50999909       0.64903469       0.00024703      -0.00039227      -0.00048126
C       -2.39366800       0.90053728       0.13961150       0.00034508      -0.00041774       0.00016893
H        1.34928249       1.12149385      -1.15786637       0.00111568      -0.00181878      -0.00063068
H        2.44702200       1.89531165       0.25184213      -0.00101656       0.00146845       0.00078109
H        0.40868742       1.57491309       1.68244284      -0.00007679      -0.00024731      -0.00109640
H       -1.50642436      -2.00248126      -1.35853673      -0.00079216      -0.00065435      -0.00041057
H       -3.71894541      -2.68310937      -0.45591556       0.00005164       0.00031203      -0.00045427
H       -5.07125464      -1.06279931       0.84244606      -0.00012603       0.00003947       0.00104525
H       -4.21426968       1.22692772       1.20740689       0.00065061       0.00009258      -0.00065216
H       -2.02459337       1.90801455       0.27166021      -0.00015232      -0.00053766       0.00124563
