20
Properties=species:S:1:pos:R:3:forces:R:3 charge=0 spin=1 energy=-11876.7509765625 stress="5.004204273184598e-10 5.987595419476577e-10 -2.3031060392142422e-10 5.987595419476577e-10 1.485730094508142e-09 -4.247695251091699e-10 -2.3031060392142422e-10 -4.247695251091699e-10 6.63909871523316e-10" free_energy=-11876.7509765625 pbc="F F F"
N        0.00745420       2.02136428      -0.81349446      -0.00024145       0.00037837       0.00045782
C        1.31506981       1.68716048      -0.26112601      -0.00010881      -0.00012261      -0.00017978
C        0.77363413       0.76591077       0.73106681      -0.00009710       0.00016266       0.00020270
C        1.28348639      -0.61921120       1.00166737       0.00022316      -0.00032982       0.00056534
C        1.88544952      -1.27780684      -0.15390752       0.00043228      -0.00008637       0.00004828
N        2.39904853      -1.79888066      -1.03653356      -0.00042496       0.00026088       0.00029144
O       -0.87606688      -0.19803218      -0.34170616      -0.00013328      -0.00024849      -0.00014374
C       -2.02135590      -0.20913674       0.48633573      -0.00021191       0.00055374      -0.00058264
N       -3.18551774      -0.78731600      -0.12271668       0.00058055      -0.00049841      -0.00145072
H       -0.70495723       0.80709844      -0.74448730      -0.00006288       0.00000417      -0.00026464
H       -0.35523823       2.85809934      -0.36683505       0.00031835      -0.00012714      -0.00023353
H        1.86234703       2.52366243       0.18485781      -0.00040071      -0.00075076       0.00030078
H        1.95222240       1.19128127      -0.99568270       0.00008571      -0.00012878      -0.00002052
H        0.20629730       1.21713457       1.53577117      -0.00031114       0.00063163      -0.00026205
H        2.06731133      -0.50136030       1.76383650       0.00013310      -0.00039847      -0.00041243
H        0.51196873      -1.25616530       1.42837468       0.00046102       0.00056625      -0.00063564
H       -1.78890315      -0.79036594       1.38653078      -0.00024819      -0.00012019       0.00028011
H       -2.26896805       0.81393135       0.79322275       0.00012986      -0.00008836       0.00078039
H       -3.44349804      -0.26539898      -0.95126797       0.00013459      -0.00112125       0.00075150
H       -2.99131417      -1.73790877      -0.41275620      -0.00025797       0.00146323       0.00050724
