26
Properties=species:S:1:pos:R:3:forces:R:3 charge=0 spin=1 energy=-21130.412109375 stress="3.2177049913428846e-10 5.350776488555198e-10 6.559771059677644e-10 5.350776488555198e-10 1.567821872328068e-09 1.0484705464941513e-10 6.559771059677644e-10 1.0484705464941513e-10 5.201106212382456e-10" free_energy=-21130.412109375 pbc="F F F"
C       -3.56696866       0.88844870      -0.52902924       0.00033760      -0.00044638      -0.00043379
N       -2.43923759       0.01645172      -0.21625624       0.00039148      -0.00070181       0.00013452
C       -2.63828755      -1.29296465       0.12231902       0.00030822      -0.00039896       0.00017487
O       -1.78959033      -2.08593470       0.45285165      -0.00068259       0.00072561      -0.00016628
O       -3.94881676      -1.63289926       0.04733163      -0.00057539      -0.00074594       0.00066394
C       -1.14871317       0.60020367      -0.09694406       0.00007108      -0.00040376       0.00068592
C       -1.03687556       1.92727477       0.31063862      -0.00053993       0.00027770       0.00025330
C        0.20789851       2.53397050       0.40179295      -0.00055698       0.00067437      -0.00090482
C        1.35982271       1.83199366       0.09855698      -0.00061621      -0.00076208      -0.00026350
C        1.22541244       0.51614473      -0.31646572      -0.00050461      -0.00065427       0.00016214
N        2.39983720      -0.20749147      -0.67801932       0.00004280      -0.00057793      -0.00000870
N        2.70781773      -1.18395816       0.07702686       0.00040120       0.00008580      -0.00059396
O        3.75381744      -1.81483126      -0.46629095       0.00049761       0.00080827       0.00051600
C       -0.00050672      -0.11190339      -0.42748062      -0.00006611       0.00057810       0.00003794
O        3.99137808       0.41468469       0.82618154       0.00066727      -0.00005767       0.00062644
H       -3.22171842       1.67066196      -1.20127579      -0.00028363       0.00065854       0.00117388
H       -4.34446151       0.31761944      -1.02422491       0.00115365       0.00022019       0.00020203
H       -3.98970928       1.34763791       0.36744483       0.00051107       0.00000392      -0.00055097
H       -3.97710943      -2.56528468       0.29982253      -0.00061780       0.00122464      -0.00068970
H       -1.92105721       2.49031619       0.57422080      -0.00023068       0.00017522      -0.00002771
H        0.27431447       3.55933837       0.74125591       0.00054688       0.00004140      -0.00010315
H        2.35187908       2.24614742       0.21831872      -0.00114864      -0.00145742      -0.00020504
H        4.06809764      -2.38900065       0.24537449      -0.00010133       0.00069930      -0.00028779
H       -0.05479897      -1.13696206      -0.75699428       0.00093742      -0.00013044       0.00001304
H        3.26769940       0.36190813      -0.84879816       0.00052787       0.00046268      -0.00014409
H        4.65738646       0.65776841       1.47923278      -0.00047106      -0.00029945      -0.00026453
