25
Properties=species:S:1:pos:R:3:forces:R:3 charge=0 spin=1 energy=-15568.2802734375 stress="2.993922887384315e-09 -1.7931427176431924e-10 -7.640935106856261e-10 -1.7931427176431924e-10 3.0210700607824492e-09 1.109832115098186e-09 -7.640935106856261e-10 1.109832115098186e-09 2.192886094931623e-09" free_energy=-15568.2802734375 pbc="F F F"
O        1.32638148       2.28284398       0.24028783      -0.00011277      -0.00043648      -0.00051379
C        0.07997464       2.47283098      -0.24759050      -0.00068301       0.00087360      -0.00045561
C       -0.64957770       1.34118780       0.35863831       0.00009257      -0.00041968       0.00002748
O       -1.44897934       0.58306289      -0.32868049      -0.00006557       0.00002396       0.00017548
C       -1.91494343      -0.66143802       0.21132244      -0.00000988       0.00025040      -0.00057667
C       -2.01489459      -0.74281809       1.69959419       0.00091028      -0.00057903       0.00014149
O       -2.22114266      -1.48266833      -0.57839387       0.00004201       0.00076792       0.00085106
N        1.09735665      -0.37516997       0.33085035      -0.00004530      -0.00020934       0.00053915
C        1.63379112      -1.08619107       1.47818181      -0.00076032      -0.00028230      -0.00019629
C        1.21679313      -1.08409024      -0.94159057      -0.00071217       0.00042421      -0.00018308
N        2.54970952      -1.27164636      -1.48585776       0.00082856       0.00088555       0.00022981
H        1.51319555       0.57605261       0.26009851      -0.00024760      -0.00022537       0.00029327
H       -0.43327353       3.40523660       0.08398554       0.00028408      -0.00034508      -0.00034827
H       -0.04233953       2.43759369      -1.34669920       0.00054485      -0.00031167       0.00053149
H       -0.54778944       1.19819087       1.42639117      -0.00028338      -0.00034736      -0.00046459
H       -1.02092937      -0.82833317       2.13711824       0.00039645       0.00050103      -0.00033639
H       -2.50643518       0.13844042       2.11026274       0.00036953      -0.00074641      -0.00022605
H       -2.59008505      -1.63362136       1.93480465      -0.00002373      -0.00006757       0.00035095
H        1.52720033      -0.46821472       2.37240083       0.00018841      -0.00047014      -0.00052255
H        1.09025379      -2.02178662       1.63781293      -0.00002266       0.00069358      -0.00035986
H        2.69889308      -1.32968966       1.38204120       0.00007975       0.00065890       0.00053825
H        0.75065063      -2.06701198      -0.83455900       0.00030312       0.00055653      -0.00047268
H        0.63292209      -0.52956539      -1.67946587       0.00021975       0.00023158       0.00019042
H        3.00946882      -0.37779278      -1.61228961      -0.00042114      -0.00131130       0.00108689
H        3.12873903      -1.83677207      -0.87786386      -0.00087231      -0.00011510      -0.00029910
