25
Properties=species:S:1:pos:R:3:forces:R:3 charge=0 spin=1 energy=-14093.662109375 stress="4.672730535837388e-10 -9.907562548150395e-10 -8.97545995859339e-11 -9.907562548150395e-10 1.8575707638746053e-09 -9.33160215765838e-10 -8.97545995859339e-11 -9.33160215765838e-10 5.436798233837692e-10" free_energy=-14093.662109375 pbc="F F F"
C       -0.58752973       1.80424381      -0.49187952       0.00016478      -0.00015113       0.00096609
C       -0.99427253       0.42095656      -0.89106314      -0.00056458      -0.00035393       0.00043690
O       -1.29001721       0.06392862      -1.99453383      -0.00021219      -0.00032765       0.00012013
N       -1.54071995      -0.49688165       0.26369443      -0.00084931       0.00100841       0.00072390
C       -1.74713103       0.14008425       1.57342168       0.00069392       0.00020383       0.00008491
C       -2.68323385      -1.31090275      -0.17014880      -0.00059986      -0.00032498      -0.00100836
O        0.74303842      -0.57466858      -0.38052950      -0.00027597      -0.00097948       0.00053382
O        1.35527790      -0.07782312       0.82131878       0.00012124      -0.00030559      -0.00029033
C        2.63454704       0.40735128       0.45765169      -0.00031304       0.00028789       0.00096001
C        3.56482286      -0.70015158       0.00218037      -0.00129965       0.00055280       0.00099105
H       -0.04963396       2.22283693      -1.33811581       0.00089686      -0.00142168       0.00148964
H       -1.48047797       2.40959447      -0.31577878       0.00107105       0.00035049      -0.00070349
H        0.04880314       1.81281196       0.38696610       0.00067577      -0.00086968      -0.00079818
H       -2.48884963       0.93474672       1.49611655      -0.00034905      -0.00073659       0.00026965
H       -2.10233284      -0.61379990       2.27346367       0.00128614       0.00055315       0.00085413
H       -0.80149654       0.53467663       1.92985602      -0.00082620       0.00134891      -0.00118166
H       -2.87437360      -2.07360669       0.58190143       0.00027554      -0.00011821      -0.00195897
H       -3.56467356      -0.68115669      -0.28830478       0.00048406       0.00064716      -0.00041253
H       -2.44498716      -1.77185809      -1.12206834      -0.00060335      -0.00052249       0.00034636
H       -0.58127951      -1.01511222       0.23911139      -0.00066015       0.00025786       0.00142958
H        2.52328363       1.16848282      -0.32288414      -0.00023150      -0.00061775      -0.00090928
H        3.01371611       0.89011803       1.36336847      -0.00083576      -0.00127587       0.00025617
H        4.54962231      -0.29507546      -0.23814396       0.00073911       0.00078446      -0.00156496
H        3.15530129      -1.18819902      -0.87993216       0.00074705       0.00125892      -0.00040026
H        3.67873634      -1.44394634       0.79122221       0.00046482       0.00075117      -0.00023454
