8
Properties=species:S:1:pos:R:3:forces:R:3 charge=0 spin=1 energy=-20313.80859375 stress="-1.7239741856300839e-09 2.259803011384065e-09 -1.4217929611426428e-10 2.259803011384065e-09 -7.6976131024864e-10 1.4392739777768782e-10 -1.4217929611426428e-10 1.4392739777768782e-10 -1.07338610222385e-10" free_energy=-20313.80859375 pbc="F F F"
N       -0.43829891       1.75357279      -0.00032024      -0.00197291       0.00111759      -0.00008136
C       -0.55631310       0.45345419       0.00015858       0.00120628      -0.00135499      -0.00039742
S       -1.61853452      -0.76823521       0.00093245      -0.00078875       0.00071359       0.00014048
N        0.99021063       0.24283131      -0.00042804      -0.00049224      -0.00105184       0.00025518
F        1.43891422      -0.44738607       1.07293020       0.00099707       0.00020614       0.00004119
F        1.43803694      -0.44827136      -1.07357623       0.00086895       0.00033644      -0.00005555
H       -1.29200491       2.29624615      -0.00018573       0.00096947       0.00047493       0.00009669
H        0.94847966       1.45886820      -0.00086100      -0.00078809      -0.00044204       0.00000080
