14
Properties=species:S:1:pos:R:3:forces:R:3 charge=0 spin=1 energy=-93727.1953125 stress="6.139924679793296e-10 -4.849681767282732e-10 -3.4231331658141073e-10 -4.849681767282732e-10 -4.199156133921633e-09 -4.2031900182593063e-10 -3.4231331658141073e-10 -4.2031900182593063e-10 -5.011354664574696e-10" free_energy=-93727.1953125 pbc="F F F"
O       -1.11406772      -2.33939734       0.57612134      -0.00077185      -0.00052437       0.00146832
N       -0.64626354      -1.45460844      -0.17084833       0.00073832      -0.00179166       0.00055647
C       -1.23813513      -0.29719157       0.29965720       0.00033551       0.00001976      -0.00148148
C       -2.69496901      -0.14996843      -0.14747407       0.00023758      -0.00014675      -0.00246561
O       -3.38007102      -1.04639803      -0.53537865       0.00044152      -0.00093758       0.00065389
S       -0.29321829       1.22155677       0.24432519       0.00038052       0.00025570       0.00037551
O        0.24189697       1.46906110       1.54609738      -0.00017291       0.00029986       0.00086296
O       -1.10215191       2.21584473      -0.40786321       0.00024509       0.00084758       0.00117075
C        1.03606166       0.85085340      -0.89022105      -0.00079717       0.00033069      -0.00007212
Br       2.38308808      -0.29416227      -0.15194337      -0.00005031      -0.00036988      -0.00051720
H       -1.60584467      -1.33688861       1.24019804       0.00006172       0.00057480      -0.00062861
H       -3.03558667       0.88954362      -0.03851842      -0.00048372       0.00096192       0.00048833
H        0.61950833       0.40085474      -1.78708414      -0.00118811      -0.00050354      -0.00009554
H        1.47290291       1.82079033      -1.11591790       0.00102409       0.00098346      -0.00031631
