21
Properties=species:S:1:pos:R:3:forces:R:3 charge=0 spin=1 energy=-87676.8125 stress="1.9224608571732915e-09 -5.331163843713682e-10 -8.088844039022547e-10 -5.331163843713682e-10 -2.0660804178618264e-09 -4.478464543655747e-10 -8.088844039022547e-10 -4.478464543655747e-10 1.213197209359862e-09" free_energy=-87676.8125 pbc="F F F"
C       -0.25304391       1.44486288      -0.88622720       0.00099668      -0.00205282      -0.00083598
C        0.87588651       2.62357586       0.47538743      -0.00078493      -0.00019079      -0.00002921
C        1.41662691       3.74661560      -0.33385148      -0.00015976       0.00057817       0.00035542
O        0.66189538       2.40102557       1.58570409       0.00124993       0.00007237      -0.00156349
C       -1.58462747       1.02044567      -0.68547545      -0.00006312       0.00063767       0.00064203
C       -1.85274863      -0.22248529      -0.17891476      -0.00023057       0.00088382       0.00034632
C       -3.23025765      -0.72462610       0.09162936      -0.00003362      -0.00069338      -0.00098353
O       -3.50722593      -1.88810399       0.14538509       0.00163621       0.00117785      -0.00084941
O       -4.18801102       0.21300847       0.27992578      -0.00018738      -0.00089604       0.00027691
C       -0.77828561      -1.13562034       0.02065429      -0.00127965      -0.00047520      -0.00109947
C        0.51279194      -0.76975861      -0.18094325      -0.00028563      -0.00038081       0.00104177
Br       1.93380051      -1.96225661       0.13078658      -0.00104523      -0.00067925      -0.00043777
C        0.84491633       0.57894799      -0.54072828       0.00113565      -0.00133994       0.00094115
O        1.99279489       1.09046643      -0.40006221      -0.00029272       0.00022095       0.00081246
H       -0.07254658       2.21591202      -1.62260243      -0.00059709      -0.00142237       0.00087252
H        2.28741890       4.12718641       0.19856786       0.00103009       0.00134819      -0.00140198
H        0.64617721       4.51739092      -0.37516379       0.00037918       0.00121038       0.00094121
H        1.69765635       3.41371386      -1.32278336      -0.00205485       0.00085640       0.00050599
H       -2.38675602       1.68108061      -0.99670886       0.00053738       0.00065342      -0.00048924
H       -3.78434407       1.08509396       0.35287983       0.00039388      -0.00016427       0.00024264
H       -1.02233800      -2.13539531       0.35565077      -0.00034352       0.00065577       0.00071160
