18
Properties=species:S:1:pos:R:3:forces:R:3 charge=0 spin=1 energy=-22877.408203125 stress="-1.8914003696579584e-10 -8.377891713706731e-10 1.0379052062248206e-09 -8.377891713706731e-10 4.3212636247069725e-10 1.597354748472668e-10 1.0379052062248206e-09 1.597354748472668e-10 -4.828474842177854e-10" free_energy=-22877.408203125 pbc="F F F"
N       -4.64751007      -0.11079163      -0.10859321       0.00108165      -0.00046919       0.00078662
C       -3.53529478      -0.06693606       0.16694332      -0.00109541      -0.00089430       0.00001496
C       -2.11586428      -0.04012042       0.53946060      -0.00040512       0.00067971      -0.00022932
N       -1.29373523      -0.49827458      -0.56863861       0.00044276       0.00077466      -0.00021161
C        0.12820188      -0.21222417      -0.52854293       0.00036377       0.00029892       0.00023764
C        0.81330342      -0.59259977       0.76805761      -0.00016755       0.00080484       0.00021702
O        1.26422806       1.41701239       0.65805454      -0.00077455       0.00100839       0.00145704
C        0.50413126       1.26955047      -0.56050180       0.00027283      -0.00051183       0.00112581
Cl       3.26299179      -0.34853967      -0.19653195       0.00027655       0.00006491      -0.00005968
H       -2.01011706      -0.62748677       1.46089073      -0.00224656       0.00035527      -0.00059427
H       -1.85468998       0.99004480       0.78599929       0.00199597       0.00008394       0.00036314
H       -1.48001013      -1.46432345      -0.79758418       0.00071789       0.00018930       0.00010434
H        0.59196186      -0.75502421      -1.34747734      -0.00060442       0.00002909      -0.00037840
H        0.34979816      -0.28697959       1.69615665      -0.00055419      -0.00081587       0.00087315
H        1.46056367      -1.45010855       0.83038834      -0.00059408      -0.00044769      -0.00019681
H        1.11242887       1.52754518      -1.42326208       0.00077649       0.00108156      -0.00087969
H       -0.35639019       1.93368334      -0.51370678      -0.00058353      -0.00196736      -0.00081515
H        2.19998275       1.16766269       0.42890780       0.00109768      -0.00026420      -0.00181466
