24
Properties=species:S:1:pos:R:3:forces:R:3 charge=0 spin=1 energy=-50938.59375 stress="2.1600866928483953e-10 -3.4804154003253984e-10 6.826761378420088e-10 -3.4804154003253984e-10 -6.037354505217252e-10 1.6738553598738548e-10 6.826761378420088e-10 1.6738553598738548e-10 -3.497122869067226e-10" free_energy=-50938.59375 pbc="F F F"
C       -4.05310957      -1.82522010      -0.36495251       0.00010710       0.00041917       0.00031507
N       -2.62361353      -1.79633823      -0.09773768      -0.00115269       0.00080159       0.00023249
C       -2.00354046      -0.60802766       0.01997236      -0.00000191      -0.00159407      -0.00000629
Cl      -0.16313043       1.44481872       0.12347173       0.00035590      -0.00002778       0.00007943
C       -2.25191943       0.61825801       0.18377306      -0.00043303       0.00231105      -0.00010380
Cl      -3.21523711       1.90837618       0.60723985       0.00044781      -0.00041842      -0.00022531
S        0.23143732      -0.82212125      -0.04456568       0.00001281      -0.00007653       0.00094946
O        0.11636821      -1.48173153       1.22434247      -0.00043298       0.00038326       0.00007772
O        0.02835968      -1.40626642      -1.34479938      -0.00008174       0.00008577      -0.00060046
C        1.95950582      -0.33840577      -0.10160579      -0.00032532      -0.00078832       0.00144354
C        2.55577927      -0.10604662      -1.32956906      -0.00024113       0.00024847      -0.00017692
C        3.88223698       0.29734011      -1.36023733      -0.00016306       0.00061356      -0.00082231
C        4.58898623       0.46249858      -0.17752730       0.00017174       0.00086602      -0.00114033
C        3.97481557       0.22089876       1.04350046      -0.00030324      -0.00023132      -0.00043534
C        2.64883348      -0.18138839       1.08964827       0.00008163      -0.00048001       0.00046337
H       -4.58070530      -1.30978370       0.43745696       0.00075914      -0.00007487       0.00084159
H       -4.30365313      -1.33916336      -1.31310815       0.00066309       0.00064686      -0.00061947
H       -4.39329770      -2.85844615      -0.39126489      -0.00021082      -0.00141845      -0.00047025
H       -2.06774283      -2.50683268      -0.54827858       0.00047886      -0.00069571      -0.00030591
H        1.99095554      -0.24022803      -2.24092560      -0.00032918      -0.00037333       0.00055301
H        4.36348004       0.48058542      -2.31168221       0.00125520       0.00005300      -0.00032234
H        5.62365114       0.77840122      -0.20735805       0.00060910      -0.00007432       0.00041265
H        4.52870774       0.34416786       1.96465885      -0.00031555      -0.00000574      -0.00055233
H        2.15474246      -0.37264498       2.03136820      -0.00095206      -0.00016925       0.00041293
