17
Properties=species:S:1:pos:R:3:forces:R:3 charge=0 spin=1 energy=-27595.447265625 stress="-1.808861505026016e-09 -4.078691273612378e-10 3.336112774920963e-10 -4.078691273612378e-10 -9.032720682533579e-10 5.661399682388435e-10 3.336112774920963e-10 5.661399682388435e-10 -1.6780408174099648e-09" free_energy=-27595.447265625 pbc="F F F"
N        2.02132342       2.44870845      -0.81763727       0.00116941       0.00092690      -0.00113017
C        1.22774949       1.91998094      -0.18049093      -0.00084513      -0.00067860       0.00077337
C        0.24835495       1.18226243       0.61168339      -0.00010875      -0.00023341       0.00015128
N       -0.20133000      -0.02992405      -0.11260008       0.00077796       0.00006610       0.00100148
C       -1.15613028      -0.90606877       0.90319839       0.00050910      -0.00118172      -0.00087249
O       -0.99627757      -0.76198844       2.05558376      -0.00025448       0.00040415       0.00055587
C        0.74373369      -0.90341075      -0.80781639       0.00041366       0.00042096       0.00013971
O        0.35635733      -1.49284241      -1.76598508      -0.00022827      -0.00044016      -0.00032304
C        2.14685436      -1.04697260      -0.26034319      -0.00053177      -0.00050621       0.00054726
F        2.17039067      -0.80819878       1.09768131       0.00008173       0.00001413       0.00011179
Cl      -2.88978320       0.53218123      -0.14695062      -0.00031626      -0.00004010       0.00018234
H       -0.65668128       1.77060919       0.76837796      -0.00022604       0.00008245       0.00001229
H        0.66682395       0.90387335       1.57380581       0.00005680      -0.00011026       0.00009432
H       -1.61131078      -1.69607558       0.31078456      -0.00013996       0.00060160       0.00006855
H        2.47886467      -2.06437643      -0.46013586       0.00005180      -0.00011884      -0.00009156
H        2.80094729      -0.33369996      -0.76708039       0.00024627       0.00044366      -0.00034446
H       -1.00619672       0.24748219      -0.74276536      -0.00065684       0.00034936      -0.00087649
