22
Properties=species:S:1:pos:R:3:forces:R:3 charge=0 spin=1 energy=-18012.67578125 stress="-3.706062123853826e-10 1.0211611556343314e-09 1.7429029053328549e-10 1.0211611556343314e-09 -1.7208917624245146e-09 -8.730173528537222e-11 1.7429029053328549e-10 -8.730173528537222e-11 5.1743762052858244e-11" free_energy=-18012.67578125 pbc="F F F"
C       -1.51169962       2.10461985       0.68196486       0.00010887       0.00019850      -0.00028315
C       -0.78078052       0.80535476       0.80635900      -0.00029492       0.00031823      -0.00056779
O       -0.27330223       0.40863196       1.82627197      -0.00026849      -0.00023887       0.00070044
C       -0.72170704      -0.05270150      -0.46890381       0.00014493       0.00017335      -0.00022797
C        0.46419430      -1.00534810      -0.42591413       0.00006174      -0.00038630       0.00002775
N        1.70756241      -0.20296120      -0.46851428      -0.00004470      -0.00060339      -0.00028601
C        2.17389640       1.13261891      -0.52738847      -0.00027323       0.00096384       0.00004005
O        1.56393855       2.11758031      -0.75768621       0.00026026      -0.00031137       0.00078642
C       -2.06822336      -0.78166293      -0.56395768       0.00066912      -0.00021893       0.00025475
C       -2.23621496      -2.03436465       0.25362214       0.00030409       0.00009707       0.00021625
O       -2.95423305      -0.31920672      -1.23586990      -0.00066736       0.00026283      -0.00030252
N        2.94094070      -0.52874667       0.03593442       0.00049394       0.00008619      -0.00034294
N        3.52701889      -1.39462544       0.46992715      -0.00006562      -0.00056678      -0.00042625
H       -0.89529451       2.78056900       0.08476773      -0.00010107       0.00029400       0.00006857
H       -1.68612757       2.53475482       1.66416484      -0.00027800      -0.00005206       0.00001249
H       -2.45011667       1.96029360       0.14356961      -0.00014159       0.00023961      -0.00021577
H       -0.67168425       0.61003646      -1.33453470       0.00008191       0.00009520       0.00006926
H        0.46546175      -1.56433695       0.50817759      -0.00001395       0.00024933      -0.00003411
H        0.45548745      -1.68935358      -1.27504098      -0.00030738      -0.00034910       0.00039225
H       -3.28079746      -2.33108100       0.25070209       0.00009219      -0.00026896      -0.00010835
H       -1.63189243      -2.83979315      -0.17007920       0.00019351      -0.00016367       0.00006253
H       -1.88576678      -1.86885779       1.27436798       0.00004597       0.00018145       0.00016454
