23
Properties=species:S:1:pos:R:3:forces:R:3 charge=0 spin=1 energy=-20607.71484375 stress="-1.6222242993357838e-10 -8.698794462524972e-10 7.489401876448198e-10 -8.698794462524972e-10 6.019666431988924e-10 -1.3587045932794695e-09 7.489401876448198e-10 -1.3587045932794695e-09 -8.660940853388865e-10" free_energy=-20607.71484375 pbc="F F F"
C       -3.45571588       0.00695344      -0.34351028      -0.00042999      -0.00083747       0.00049310
N       -2.17664980      -0.41164699       0.20101670      -0.00088188       0.00029883       0.00135204
C       -1.81740399      -1.81272264       0.03727563       0.00047355       0.00114506      -0.00030977
C       -1.29623489       0.52837693       0.58896580      -0.00034207       0.00045365       0.00048303
O       -1.50413519       1.72828468       0.62133982       0.00037107       0.00034201       0.00035954
O       -0.07688360       0.03172583       0.95271875      -0.00006133       0.00010061      -0.00028419
C        0.99434126       0.06453597      -0.46303118      -0.00104210      -0.00017577       0.00049746
O        0.51544228       0.11627423      -1.54039773      -0.00010476      -0.00053186      -0.00038316
N        1.83371656      -1.14773519       0.00765597      -0.00085866       0.00010610       0.00024354
O        1.50248595      -2.19184588      -0.48919112       0.00046802      -0.00079125      -0.00045092
O        2.70602652      -0.95835983       0.81816688      -0.00093976       0.00073610       0.00017053
O        1.59059704       1.27131481       0.20099770      -0.00056161       0.00016278      -0.00007897
C        1.38364608       2.50020719      -0.55784747       0.00078046      -0.00009312      -0.00018647
H       -3.48070844      -0.14505547      -1.42565374      -0.00114621      -0.00052692      -0.00036423
H       -4.25829285      -0.57507022       0.11155491      -0.00101700      -0.00002388       0.00057340
H       -3.60531778       1.05970258      -0.12928572       0.00118922      -0.00047615       0.00016089
H       -1.06659537      -2.10018493       0.76576371       0.00000467       0.00071819      -0.00034148
H       -1.42901942      -2.00947057      -0.96489709       0.00111473      -0.00032748       0.00019244
H       -2.70944498      -2.41730766       0.19730324       0.00152156      -0.00000846      -0.00172791
H        0.80789039       1.07406664       0.97418544      -0.00072765       0.00007260       0.00001831
H        1.92621155       3.26379474      -0.01205092       0.00127062       0.00041246       0.00107749
H        1.80201249       2.34899349      -1.54690526       0.00138614      -0.00020498      -0.00167571
H        0.32077207       2.71801884      -0.60577404      -0.00046697      -0.00055150       0.00018069
