44
Properties=species:S:1:pos:R:3:forces:R:3 charge=0 spin=1 energy=-39633.64453125 stress="-1.189751297481223e-09 -1.1373493119526401e-10 4.698278988080062e-10 -1.1373493119526401e-10 -4.415046939154621e-10 5.136419622964183e-10 4.698278988080062e-10 5.136419622964183e-10 -6.801818552837346e-10" free_energy=-39633.64453125 pbc="F F F"
C        6.48745848      -1.08420766       0.94440702       0.00033841      -0.00017551      -0.00013385
N        5.72404744      -1.63872974      -0.15338021       0.00082317       0.00024718      -0.00038075
C        4.32022589      -1.52789095      -0.12895853       0.00051016       0.00049859       0.00045040
C        3.59350585      -1.69584354      -1.30985327       0.00118421       0.00144392       0.00020185
C        2.21111550      -1.64402816      -1.33054690       0.00081083       0.00107083      -0.00040233
C        1.51997948      -1.41675539      -0.14730352       0.00060311       0.00041354      -0.00033299
C       -0.68731009      -1.33578890      -0.13087259       0.00042138      -0.00003955       0.00015071
O        0.06552597      -2.37003621      -0.01885026       0.00111097       0.00006762       0.00041791
N        0.06522368      -0.29679532      -0.31171508       0.00016987      -0.00018623      -0.00076120
C       -2.15261863      -1.44736840      -0.08192808      -0.00020532      -0.00051405       0.00062766
C       -2.97188383      -0.48455136      -0.66556118      -0.00053700      -0.00021106       0.00156810
C       -4.34738290      -0.62762387      -0.61817091      -0.00030360       0.00012681      -0.00151643
C       -4.93447995      -1.72295943       0.01092278       0.00011563       0.00053685      -0.00041678
C       -6.42847329      -1.88538459       0.03796839       0.00089858       0.00078472      -0.00061330
C       -4.10438652      -2.67970519       0.59002320      -0.00064049       0.00023891       0.00218076
C       -2.72767552      -2.55209034       0.54014164      -0.00048356      -0.00011167       0.00021484
C       -0.13929327       1.07957514      -0.18801704       0.00032622      -0.00127906      -0.00001401
C       -0.90312838       1.63071732       0.84036310      -0.00034437       0.00066186      -0.00009347
C       -1.03609692       3.00405636       0.95331471       0.00005309      -0.00114989       0.00057894
C       -0.38377537       3.82827173       0.04998349       0.00042799       0.00090122       0.00032182
Cl      -0.54727147       5.55251106       0.19257527      -0.00000462      -0.00014019       0.00068092
C        0.40368009       3.29823650      -0.95849328       0.00131936      -0.00042408      -0.00057179
C        0.52391264       1.92355575      -1.07468015       0.00152471       0.00094587      -0.00002722
C        2.20879796      -1.26587562       1.04079277      -0.00081345      -0.00020210       0.00060990
C        3.60160982      -1.31205951       1.04128160      -0.00023589       0.00014314       0.00048837
H        7.54739369      -1.14568451       0.70140074      -0.00069000      -0.00172356      -0.00038771
H        6.33013795      -1.66947932       1.85222052       0.00186950       0.00053933       0.00124731
H        6.24005457      -0.03748641       1.16774746      -0.00176222      -0.00040002      -0.00070133
H        6.10226238      -1.38884996      -1.05287989       0.00020301       0.00100927      -0.00131989
H        4.12299037      -1.87909759      -2.23890728      -0.00030884      -0.00012934      -0.00032681
H        1.66935096      -1.77423470      -2.25801793      -0.00023770      -0.00092752       0.00051868
H       -2.53388912       0.37185272      -1.16117147      -0.00115205      -0.00151013      -0.00053474
H       -4.97845202       0.12423461      -1.07671760      -0.00016873       0.00152442      -0.00113226
H       -6.75359729      -2.38958062       0.94756817      -0.00023023       0.00034987      -0.00219337
H       -6.93165435      -0.92101443      -0.02061098      -0.00031440       0.00022766       0.00156703
H       -6.76369244      -2.48605897      -0.81045820      -0.00034204      -0.00125570       0.00184123
H       -4.54516324      -3.53632726       1.08558405      -0.00000517      -0.00152427      -0.00076361
H       -2.08505473      -3.30234674       0.98068017      -0.00079896      -0.00024071      -0.00005744
H       -1.39806269       0.97843507       1.54873017      -0.00118099      -0.00000687      -0.00024122
H       -1.63352226       3.43725627       1.74352358       0.00008743       0.00018327       0.00039902
H        0.91444248       3.95754089      -1.64640312      -0.00095710       0.00090790      -0.00149193
H        1.13439231       1.48670060      -1.85414985       0.00036173       0.00053293      -0.00118010
H        1.67088914      -1.10128826       1.96539146      -0.00110379      -0.00048240       0.00095290
H        4.11430765      -1.17807109       1.98420703      -0.00033967      -0.00072228       0.00057589
