17
Properties=species:S:1:pos:R:3:forces:R:3 charge=0 spin=1 energy=-26904.90625 stress="6.512421157900405e-10 1.1828599211227697e-09 -1.0660912430626723e-10 1.1828599211227697e-09 -5.197285934954721e-10 4.0804373768743574e-10 -1.0660912430626723e-10 4.0804373768743574e-10 -5.334422348290957e-10" free_energy=-26904.90625 pbc="F F F"
N        2.05995393       1.81235330      -0.34822242       0.00057179      -0.00055385      -0.00109704
C        2.04050919       0.53848874       0.23789731      -0.00002563       0.00019607      -0.00082757
F        3.00499330      -0.33379448      -0.25064294      -0.00040282      -0.00006253       0.00039516
S        0.42675562      -0.23667014      -0.13802910      -0.00015074       0.00091076       0.00017530
O        0.28282781      -0.06608060      -1.58131215       0.00016758      -0.00036521      -0.00131404
O        0.47244840      -1.57299751       0.39934850       0.00076316      -0.00094569       0.00063384
C       -0.79599488       0.65409619       0.64523454      -0.00096658       0.00015795       0.00109729
N       -2.18274941      -0.43277708      -1.41617192       0.00150436      -0.00180447      -0.00009132
O       -2.68594993       0.30568182      -2.04145381      -0.00139269       0.00179619       0.00003183
O       -3.15588489      -0.48947530       0.30566490       0.00010437      -0.00116891      -0.00065136
H        1.89339800       1.75381084      -1.34551502      -0.00007209       0.00080432       0.00122094
H        2.91260133       2.31800924      -0.15633426      -0.00045323      -0.00068676       0.00024255
H        2.16103061       0.58573139       1.31932739      -0.00016936       0.00026643       0.00004932
H       -0.79888058       1.68829576       0.30989213       0.00020997       0.00035360      -0.00002860
H       -0.67312025       0.57791049       1.72595179      -0.00002452       0.00002323      -0.00038345
H       -2.17356042      -0.01482942       0.55756060       0.00064576      -0.00036013      -0.00004232
H       -3.10107782      -1.39515322       0.64031446      -0.00030942       0.00143896       0.00058961
