33
Properties=species:S:1:pos:R:3:forces:R:3 charge=0 spin=1 energy=-30039.875 stress="-2.2281867462226046e-09 5.139496606076932e-10 -1.680995065367341e-10 5.139496606076932e-10 6.969676502599498e-10 1.6979373462788772e-09 -1.680995065367341e-10 1.6979373462788772e-09 2.1287162310645869e-10" free_energy=-30039.875 pbc="F F F"
C       -2.37149708      -0.95736772      -1.83538079      -0.00009021       0.00059016      -0.00063195
N       -2.21963987       0.07497940      -0.83190523      -0.00043380      -0.00019574       0.00033146
C       -1.31908194      -0.07797937       0.20456686      -0.00005847      -0.00013900      -0.00018826
N       -0.71238597       1.11853055       0.67920032       0.00044423      -0.00048660      -0.00006467
C       -1.50261127       1.87402052       1.63652914       0.00018804      -0.00015762      -0.00025243
N       -0.20747447       1.88729340      -0.40173135       0.00054437      -0.00063932      -0.00056389
C        0.95822739       2.66872554      -0.02139006       0.00040443      -0.00088442       0.00005873
S       -0.34026339      -1.58602965       0.34922996       0.00034720       0.00000101       0.00022745
O       -0.26562893      -1.91533557       1.79458759      -0.00024089      -0.00050603       0.00041640
C        1.26341975      -0.91034343      -0.08833702       0.00053275      -0.00028634       0.00061719
C        2.20532389      -0.76339343       0.91487993       0.00030589      -0.00027849       0.00000143
C        3.47212304      -0.29717219       0.58814265       0.00021576      -0.00017154      -0.00033705
C        3.78373109       0.01350293      -0.72827921      -0.00018595       0.00057292      -0.00000435
C        2.83106747      -0.14759073      -1.72736758       0.00054035       0.00062157       0.00010458
C        1.56850045      -0.62080554      -1.40984764       0.00065208      -0.00045362       0.00065839
O       -3.63434961      -0.34379397       0.20903109       0.00063163      -0.00035775      -0.00047648
H       -2.38941989      -1.96896182      -1.43081438      -0.00184697       0.00001990      -0.00008541
H       -1.50824251      -0.85710952      -2.49891964       0.00029144       0.00130887      -0.00006828
H       -3.27765308      -0.76743118      -2.40460318      -0.00051334      -0.00026780       0.00025953
H       -0.90275404       2.67917857       2.05676452       0.00048708      -0.00023267       0.00004090
H       -1.79833413       1.21378377       2.44960627       0.00018579       0.00153720       0.00060597
H       -2.40355811       2.31614556       1.18327551      -0.00056733       0.00019018      -0.00026281
H       -0.94778641       2.49153542      -0.75363148       0.00020534       0.00030166       0.00083634
H        1.29353232       3.22453493      -0.89765804      -0.00150436       0.00034366      -0.00086713
H        1.75283674       1.99077896       0.28559812      -0.00031173      -0.00131536      -0.00045492
H        0.77723766       3.38350340       0.79007248      -0.00017035      -0.00022817      -0.00140016
H        1.92861800      -1.01860136       1.92948162       0.00063535       0.00037483       0.00029144
H        4.21690859      -0.17808169       1.36456988      -0.00045519      -0.00175761      -0.00013423
H        4.77337961       0.37301513      -0.97940845      -0.00025859       0.00151883       0.00056864
H        3.07655542       0.08774097      -2.75485576      -0.00006304       0.00046458       0.00011876
H        0.82471714      -0.75304055      -2.18579370       0.00171296       0.00035529       0.00025666
H       -2.51703736      -0.35826540       0.82182633      -0.00021237       0.00000271      -0.00001065
H       -4.10853051       0.48734408       0.35847126      -0.00141177       0.00015401       0.00040908
