29
Properties=species:S:1:pos:R:3:forces:R:3 charge=0 spin=1 energy=-17695.6796875 stress="-5.038092165676744e-09 -9.115367904932725e-10 -1.7076720038033955e-09 -9.115367904932725e-10 6.548475650625107e-10 -2.315716729484052e-09 -1.7076720038033955e-09 -2.315716729484052e-09 1.069869526304501e-09" free_energy=-17695.6796875 pbc="F F F"
C        0.50868240       1.50777524       0.32226600       0.00102627       0.00040083       0.00043333
C        0.81925324       0.16765618       0.27272639      -0.00070440      -0.00073321       0.00006181
C        1.74893304      -0.44151722       1.29262037       0.00029612       0.00067320      -0.00032938
C        2.99443552      -1.07512638       0.67442604      -0.00002170       0.00022051      -0.00023600
N        3.85198562      -0.12999017      -0.04823046       0.00082552      -0.00162220      -0.00068906
C        3.51480956       0.22556952      -1.29486831      -0.00058635      -0.00107362      -0.00041986
N        3.25860826       0.49082871      -2.38827912       0.00041343       0.00004129       0.00119226
C       -0.03735281      -0.65590652      -0.45637961      -0.00114742      -0.00022000       0.00016841
C       -1.68106514      -0.78305199       0.81901717      -0.00144881       0.00052477       0.00018199
C       -2.57271369      -1.64529384       0.11647952      -0.00001143       0.00052866      -0.00039142
C       -3.47097993      -1.12861300      -0.76612201      -0.00067848       0.00054777      -0.00037236
C       -3.57950297       0.27736917      -0.92108068       0.00023638      -0.00087884      -0.00022784
C       -2.81837526       1.13100965      -0.17838581       0.00005614      -0.00178453       0.00039071
C       -1.89034655       0.63058885       0.78981994      -0.00099897       0.00032943       0.00063956
O       -1.11967447       1.40135133       1.44919934       0.00151485       0.00063506      -0.00033689
H        1.06060205       2.18525864       0.95968700       0.00014289       0.00187632       0.00047119
H       -0.04126716       1.96599985      -0.48745140       0.00066378       0.00110084       0.00129598
H        1.22896261      -1.22018966       1.86306556       0.00185517       0.00024933       0.00003739
H        2.05213615       0.31838441       2.01779792       0.00183415       0.00082477      -0.00133257
H        2.71951262      -1.85661071      -0.03435656       0.00125273       0.00023305       0.00030055
H        3.60648369      -1.54269595       1.44656416      -0.00127893       0.00126351       0.00144331
H        4.23258924       0.62440663       0.50299697       0.00015789      -0.00133574       0.00015599
H        0.14627008      -1.72337502      -0.50212224       0.00060095      -0.00037624      -0.00000031
H       -0.56975805      -0.25579277      -1.31043667      -0.00114299       0.00068768      -0.00073393
H       -1.12377689      -1.17852824       1.65817772      -0.00123590      -0.00021278      -0.00061068
H       -2.49655439      -2.71566069       0.26131483      -0.00038055       0.00041580      -0.00169408
H       -4.11932040      -1.78081287      -1.33621953       0.00064379      -0.00090693      -0.00005195
H       -4.29824378       0.67383127      -1.62801968      -0.00127612       0.00049308       0.00060618
H       -2.91789258       2.20577557      -0.26713685      -0.00060820      -0.00190184       0.00004734
