17
Properties=species:S:1:pos:R:3:forces:R:3 charge=0 spin=1 energy=-39761.4140625 stress="6.015798081904222e-09 -1.9715240551221314e-09 6.350598935611629e-10 -1.9715240551221314e-09 1.0349077150806352e-09 -4.713239867837338e-11 6.350598935611629e-10 -4.713239867837338e-11 -2.2810435762465886e-09" free_energy=-39761.4140625 pbc="F F F"
C       -2.85963489       1.22950330       0.06013308       0.00067922      -0.00235268      -0.00048120
O       -2.50003914      -0.15555611       0.23309536       0.00013795      -0.00045165      -0.00159569
S       -1.25534144      -0.70199339      -0.57441293       0.00037330       0.00052124      -0.00083935
O       -1.20930420      -2.08701809      -0.24748978      -0.00159385       0.00052202       0.00082254
O       -1.32545959      -0.24746040      -1.92790078       0.00014108      -0.00016207      -0.00105536
C        0.14497379       0.06616438       0.12040280       0.00064427      -0.00132555       0.00098664
Cl       0.25804358      -0.15461406       1.86987441      -0.00087620       0.00035787       0.00171459
C        0.40130792       1.39309714      -0.30257315      -0.00140795       0.00101185       0.00076926
N        0.78506731       2.43162533      -0.63939485      -0.00073695      -0.00027931      -0.00122139
N        3.21687711       0.25053878       0.15811643       0.00004882      -0.00052352       0.00044084
O        3.21066605       1.03610451      -0.59531191      -0.00082891       0.00104737      -0.00105095
O        2.31785339      -1.29220730      -0.67693814       0.00058711      -0.00057775      -0.00058860
H       -3.87387761       1.31473978       0.43571790       0.00161958       0.00072363       0.00065439
H       -2.82106451       1.50212775      -0.99224281       0.00247341       0.00030668       0.00012892
H       -2.18929096       1.85908841       0.64505140      -0.00004991       0.00026928       0.00094508
H        1.36781999      -0.86380885      -0.47544261      -0.00063701      -0.00105977       0.00133720
H        2.36197321      -2.08578118      -0.12438442      -0.00057428       0.00197220      -0.00096717
