18
Properties=species:S:1:pos:R:3:forces:R:3 charge=0 spin=1 energy=-16010.201171875 stress="-2.1315103015950854e-09 -1.203223076728932e-09 -7.614579800030441e-11 -1.203223076728932e-09 2.3206614407911275e-09 -9.40144836980572e-11 -7.614579800030441e-11 -9.40144836980572e-11 4.2379424622374096e-12" free_energy=-16010.201171875 pbc="F F F"
O       -0.70676901       2.34462283       0.56892588      -0.00070040      -0.00087717       0.00026649
N       -0.29873069       1.60810222      -0.33482212       0.00040320       0.00073408      -0.00017661
C       -0.53158462       0.29540789       0.19589116       0.00013655      -0.00003511      -0.00030711
C       -1.96094135      -0.11024593      -0.07590037      -0.00049406      -0.00008333       0.00095361
C       -2.35900042      -1.51093966       0.29604242      -0.00064995       0.00004742      -0.00011010
O       -2.74255870       0.68569024      -0.53759697      -0.00018352      -0.00035489      -0.00162572
C        0.57678732      -0.66338802       0.15555042      -0.00025237      -0.00096786      -0.00040743
O        0.49836643      -1.84543682       0.40783115      -0.00025186      -0.00094855      -0.00180005
C        1.97057101      -0.04267731      -0.08842530       0.00078793       0.00069892      -0.00000782
C        3.10315455      -0.99792006      -0.28424437       0.00010089       0.00023109      -0.00002894
O        2.07574526       1.15873967      -0.05988365       0.00155102      -0.00065476       0.00085973
H       -0.86550111       1.30573399       1.24785346       0.00054244      -0.00115651       0.00032075
H       -2.00833659      -1.76605947       1.29453084      -0.00066832       0.00131517      -0.00075608
H       -1.89916571      -2.22236903      -0.38934309      -0.00003717       0.00067124      -0.00026682
H       -3.44201943      -1.57441337       0.23141573       0.00009409      -0.00027692       0.00209159
H        4.02690664      -0.44423008      -0.42474245      -0.00046457      -0.00041302      -0.00075279
H        2.90258110      -1.63838307      -1.14460834      -0.00061570      -0.00010348       0.00083321
H        3.17600532      -1.65853404       0.58044561       0.00070135       0.00217358       0.00091395
