20
Properties=species:S:1:pos:R:3:forces:R:3 charge=0 spin=1 energy=-36533.421875 stress="7.635452825560662e-10 1.1865336491112544e-10 3.865624487175978e-10 1.1865336491112544e-10 -7.25310922433664e-11 -1.8590552708364072e-10 3.865624487175978e-10 -1.8590552708364072e-10 5.857402896047859e-10" free_energy=-36533.421875 pbc="F F F"
C        3.85519747       0.09601625      -1.36920153      -0.00021255      -0.00099930      -0.00130695
C        2.97472863       0.64381328      -0.27403000      -0.00017338      -0.00026974       0.00004816
O        1.58441101       0.31278305      -0.59193296      -0.00010365       0.00115502       0.00026919
C        0.57625594       0.61499957       0.68444189       0.00034714      -0.00007421      -0.00006413
O        0.98875806       1.35651940       1.50378700      -0.00022306      -0.00008202       0.00041416
O       -0.58811181       0.54749872       0.05737687      -0.00061259       0.00007197       0.00074962
C       -1.71261213       0.54444087       0.95748226       0.00032306       0.00066843       0.00030136
C       -2.96204040       0.64946286       0.12934498       0.00006101      -0.00011390       0.00029013
Cl      -3.23158461      -0.79926925      -0.87273276       0.00032629      -0.00001898       0.00027016
Cl       0.85968838      -1.51415004       1.27282978      -0.00017711      -0.00016719      -0.00008897
H        3.77541090      -0.99073457      -1.42223357       0.00053714       0.00049912      -0.00005728
H        4.89413234       0.34551664      -1.15518313      -0.00037367      -0.00010512      -0.00048327
H        3.58778393       0.51889433      -2.33641232       0.00061347      -0.00002744       0.00152133
H        3.00121173       1.72728421      -0.20747391      -0.00015090       0.00043949      -0.00009626
H        3.19661285       0.21508174       0.70166077      -0.00048745       0.00006153       0.00003295
H       -1.67996858      -0.38052842       1.53451788      -0.00020408       0.00010578      -0.00061049
H       -1.63400330       1.40426904       1.62600308      -0.00008001      -0.00004594      -0.00096816
H       -2.91131992       1.50448130      -0.54019872       0.00008043      -0.00040956       0.00022773
H       -3.82124642       0.75741108       0.78692656       0.00047249      -0.00007103      -0.00014284
H        1.49705593      -0.67401005      -0.53476217       0.00003734      -0.00061718      -0.00030631
