22
Properties=species:S:1:pos:R:3:forces:R:3 charge=0 spin=1 energy=-85661.1640625 stress="2.2815582756408048e-11 1.0339880063270357e-09 8.243615512437685e-11 1.0339880063270357e-09 -5.893841525939081e-10 4.6837272948963e-10 8.243615512437685e-11 4.6837272948963e-10 1.5561901767213726e-10" free_energy=-85661.1640625 pbc="F F F"
C       -0.73519656      -0.87719482      -1.30646835       0.00036071      -0.00060036      -0.00017744
C       -1.71202088      -2.06810599       0.72296322       0.00046206       0.00093597       0.00114298
C       -3.03133063      -2.21997248       0.16738185       0.00044468      -0.00011793       0.00048050
O       -0.86405818      -2.09208093       1.47956854      -0.00001585      -0.00032003      -0.00111604
C        0.61674495      -0.97651793      -0.99931592      -0.00010492      -0.00002232      -0.00008254
C        1.17155781      -0.05854049      -0.13432257       0.00020519       0.00095478       0.00010625
Br       2.98772365      -0.21749295       0.37111201      -0.00005496      -0.00050188      -0.00021788
C        0.41613568       0.99303446       0.37902109      -0.00029927      -0.00015536       0.00004423
C       -0.91348162       1.13764486       0.03918972      -0.00055516      -0.00042886      -0.00028756
O       -1.57482763       2.16181784       0.62326199       0.00061709       0.00061697       0.00062433
C       -2.52955728       2.89522347      -0.15708752      -0.00010648       0.00027886       0.00119096
C       -1.56348039       0.19593616      -0.84052728      -0.00049281       0.00029176       0.00004685
O       -2.79527034       0.26856913      -1.13826162       0.00042665       0.00023355      -0.00023776
H       -1.18479522      -1.54109313      -2.03482934       0.00016455       0.00001478       0.00022590
H       -3.71385472      -2.39671126       0.99949647      -0.00029670      -0.00064829      -0.00027631
H       -3.28039397      -1.29366754      -0.39090208       0.00034551      -0.00006557      -0.00040267
H       -3.02115370      -3.07131510      -0.51333360      -0.00049810      -0.00008184       0.00014601
H        1.21712670      -1.78060730      -1.40237330       0.00012223       0.00020199       0.00071785
H        0.85702999       1.71534522       1.05283376      -0.00001846      -0.00106946      -0.00052835
H       -3.49575687       2.40050763      -0.15926273       0.00005493       0.00075836      -0.00067255
H       -2.59637074       3.87186502       0.31675049      -0.00040875      -0.00005136       0.00056516
H       -2.18249004       3.00433612      -1.18551482      -0.00035242      -0.00022322      -0.00129133
