17
Properties=species:S:1:pos:R:3:forces:R:3 charge=0 spin=1 energy=-14403.275390625 stress="-4.8094403459764123e-11 4.686371291029445e-10 -7.303069260444772e-11 4.686371291029445e-10 -9.82484232858738e-11 -1.3571445356408418e-10 -7.303069260444772e-11 -1.3571445356408418e-10 4.865701730416561e-10" free_energy=-14403.275390625 pbc="F F F"
O        3.23109723       0.82666307      -0.25916414      -0.00020216      -0.00060035      -0.00103015
N        2.65905457      -0.46525642      -0.50475835      -0.00001132       0.00002657       0.00075042
O        2.59957670      -1.02666523       0.65276624      -0.00037593       0.00084949      -0.00061011
C        0.44039882      -0.04262947       0.20697962       0.00019328       0.00051787      -0.00004750
N       -0.84022385       0.39078168       0.11877800       0.00097251      -0.00005743       0.00043590
O       -1.09308008       1.70846128       0.47123153      -0.00074493       0.00058448       0.00013852
C       -1.92990880      -0.46775721      -0.11492233      -0.00027812       0.00075042       0.00000411
C       -3.28921316       0.16621438      -0.08203902      -0.00021696      -0.00001496       0.00020292
O       -1.71009478      -1.63415405      -0.32038681       0.00030434      -0.00107428      -0.00013984
H        3.37506595       1.15566126      -1.15479818      -0.00015444      -0.00002573       0.00115389
H        1.71980680      -0.69600342       1.17976200       0.00044638      -0.00057074      -0.00022200
H        0.59227534      -1.04469339      -0.14166556       0.00019903       0.00001353       0.00006863
H        1.15616945       0.73121190       0.41756200      -0.00001733      -0.00024644      -0.00022337
H       -1.03183281       2.22196835      -0.34769302       0.00008854      -0.00049847      -0.00033163
H       -3.47279986       0.63833957       0.88175543      -0.00003867      -0.00000629       0.00010264
H       -3.38407388       0.93531187      -0.84932015      -0.00005381       0.00033233      -0.00023792
H       -4.01895763      -0.61696418      -0.26168727      -0.00011028       0.00001997      -0.00001442
