15
Properties=species:S:1:pos:R:3:forces:R:3 charge=0 spin=1 energy=-79081.9765625 stress="-1.3497830630981866e-09 8.821810643100392e-11 7.887505648618287e-10 8.821810643100392e-11 9.196046701909211e-10 -4.409658749260359e-10 7.887505648618287e-10 -4.409658749260359e-10 -5.178489859147817e-10" free_energy=-79081.9765625 pbc="F F F"
C       -1.19623140       1.87338821       0.33624628       0.00009596      -0.00057247       0.00035967
C       -1.52281794       0.66457460      -0.27629740       0.00072255      -0.00020444       0.00010115
C       -2.81200423      -0.02086703      -0.02795301       0.00047773      -0.00040108      -0.00024682
F       -2.78978043      -1.31320616      -0.50186556      -0.00015181      -0.00067639      -0.00018480
O       -0.43349379      -0.33754807       1.24479370      -0.00079036       0.00026253       0.00133377
C        0.71666726      -0.95751021       1.04914526      -0.00020152       0.00064522       0.00052255
Br       1.92455395       0.03749157      -0.33313439      -0.00073513      -0.00107023      -0.00114453
H       -0.58641585       1.05085364       1.11720804      -0.00021985       0.00007540       0.00105572
H       -0.42082343       2.48168070      -0.11141970       0.00009829      -0.00012895      -0.00053029
H       -1.95948018       2.38473238       0.91330799      -0.00013982       0.00002354      -0.00001281
H       -0.89766402       0.25752183      -1.06279979       0.00176117       0.00074687       0.00030437
H       -3.03580386      -0.03449270       1.04005867      -0.00115761       0.00032986      -0.00063872
H       -3.59993594       0.52822569      -0.55688750      -0.00087850       0.00029951       0.00010295
H        1.38144387      -0.97259144       1.91171694       0.00097965      -0.00022548      -0.00076030
H        0.63138597      -1.93280302       0.57168046       0.00013939       0.00089623      -0.00026198
