27
Properties=species:S:1:pos:R:3:forces:R:3 charge=0 spin=1 energy=-18757.306640625 stress="1.415401240656422e-09 -4.769933337200882e-10 8.213297264525465e-10 -4.769933337200882e-10 9.188230176704337e-10 1.8191816109069947e-10 8.213297264525465e-10 1.8191816109069947e-10 6.296326793275853e-10" free_energy=-18757.306640625 pbc="F F F"
C        3.10436625       0.82287882       1.57448827      -0.00113204       0.00019852       0.00004798
C        3.09939480       1.18084086       0.12521968      -0.00036842       0.00031884       0.00062130
O        1.35682601       0.49890086      -0.68267135      -0.00005525      -0.00028545       0.00003882
C        3.39157645       0.36711621      -0.92716632       0.00040239       0.00006536       0.00058857
C        3.78190752      -1.07271941      -0.87474448       0.00008975       0.00035018       0.00016415
O        0.40988078      -1.46987371       0.49830322      -0.00019109       0.00162476       0.00088477
C       -0.53958740      -0.93422426      -0.09552613      -0.00004756       0.00086644       0.00002577
O       -0.40884938       0.11044044      -0.82460737       0.00022939       0.00045514      -0.00061339
C       -1.93279088      -1.52333481      -0.01485147      -0.00026564       0.00031710       0.00008003
C       -3.01490153      -0.59782609      -0.53753340       0.00054333      -0.00038113       0.00089225
C       -3.15988518       0.63098761       0.31994483       0.00122568       0.00077498      -0.00002265
O       -2.65706131       0.79645327       1.39963872       0.00003821       0.00029512      -0.00063163
O       -3.95876395       1.55294114      -0.25408689       0.00109649      -0.00101051       0.00068828
H        3.20840072      -0.24545167       1.75079744       0.00136384      -0.00030530       0.00025601
H        2.17512551       1.15381032       2.03984210      -0.00172598      -0.00131027      -0.00063653
H        3.92242698       1.33912855       2.08196250      -0.00043418       0.00063305      -0.00134381
H        2.93732284       2.22772280      -0.09796156       0.00094410      -0.00044402      -0.00025447
H        3.43429821       0.82960304      -1.90496198      -0.00108512       0.00022518       0.00042641
H        3.67894488      -1.50887456       0.11630629      -0.00126760      -0.00007656       0.00008457
H        4.81938319      -1.18670370      -1.19719848       0.00056620      -0.00112745       0.00042039
H        3.16541353      -1.65050818      -1.56445245       0.00121692       0.00149629      -0.00091357
H        1.34929007      -0.32140728      -0.08580666       0.00044528      -0.00164174      -0.00048299
H       -1.91764918      -2.45292166      -0.58752892      -0.00099841      -0.00044413      -0.00056095
H       -2.10809153      -1.79093861       1.02633240       0.00011152       0.00010696       0.00035194
H       -2.80774444      -0.27515937      -1.55755654       0.00010588       0.00009125      -0.00029169
H       -3.98441422      -1.10220867      -0.55129281      -0.00094011      -0.00062941      -0.00006752
H       -4.00764874       2.29505806       0.36602136       0.00013207      -0.00016278       0.00024776
