15
Properties=species:S:1:pos:R:3:forces:R:3 charge=0 spin=1 energy=-81811.3671875 stress="-3.2947831130059058e-09 -5.871789721112464e-10 3.0766458825048915e-10 -5.871789721112464e-10 1.7374023331129251e-09 -1.5657414254022228e-09 3.0766458825048915e-10 -1.5657414254022228e-09 7.59165161290376e-11" free_energy=-81811.3671875 pbc="F F F"
N        3.19299520      -1.91250067       0.31545761       0.00104259       0.00064606      -0.00126806
C        2.18475670      -1.63865718      -0.15913147       0.00135612       0.00019583       0.00036424
C        0.89004456      -1.26718876      -0.74404072      -0.00006294      -0.00011237       0.00055532
N        0.45387283       0.00884917      -0.22483987      -0.00050990       0.00046670      -0.00062279
C       -0.74215736       0.49070865      -0.75849600       0.00068203       0.00078782      -0.00014994
Br      -2.37154158      -0.43882599      -0.06064646      -0.00010263       0.00010826       0.00011358
N        1.95740562       1.43926661      -0.40689515       0.00099573      -0.00077428      -0.00003898
O        1.51964136       2.44684605      -0.60172381       0.00144503      -0.00066882       0.00071004
O        1.71852586       1.10880154       1.48424671      -0.00073031      -0.00069046      -0.00073203
H        0.99760473      -1.25044727      -1.83486151      -0.00070024       0.00011779       0.00052300
H        0.17144583      -2.05759304      -0.49834652      -0.00064941      -0.00021978      -0.00036731
H       -0.89194738       1.53239458      -0.47876056      -0.00022127       0.00050201       0.00055043
H       -0.82989433       0.36483293      -1.83802267      -0.00116065      -0.00137258      -0.00072534
H        0.93594326       0.40772763       0.87696265      -0.00064641       0.00009454       0.00026740
H        2.46586471       0.56273576       1.75971777      -0.00073779       0.00091925       0.00082031
