26
Properties=species:S:1:pos:R:3:forces:R:3 charge=0 spin=1 energy=-38668.546875 stress="-2.138009040641986e-11 4.469142833585238e-10 1.3250119057506282e-10 4.469142833585238e-10 -1.7378841421500368e-10 1.6108590850105742e-10 1.3250119057506282e-10 1.6108590850105742e-10 -3.7795558349706937e-10" free_energy=-38668.546875 pbc="F F F"
C       -3.80930311       1.15757146       0.30716308       0.00048085       0.00129737       0.00070155
O       -3.35435667      -0.19195046       0.31724881       0.00041747      -0.00043863       0.00069988
C       -2.12621617      -0.35959544       0.89180963       0.00068104      -0.00021517       0.00020128
O       -1.48498244       0.59584926       1.32672260      -0.00023162       0.00001824      -0.00002229
C       -1.72020091      -1.71684464       0.87500128       0.00096715      -0.00044870       0.00119891
C       -0.65012703      -0.36631908      -1.98947840       0.00042629      -0.00007868       0.00055504
Cl      -0.47269069      -1.91546324      -1.46854895       0.00005907       0.00042748      -0.00011992
C        0.33605410       2.63996820      -0.72509622       0.00046507       0.00041498      -0.00063968
O        1.29745338       1.60650788      -0.87011653      -0.00007123       0.00037569      -0.00040340
C        1.67999266       1.05155710       0.38040865       0.00019711       0.00020534      -0.00005860
C        2.81366465       0.09415149       0.08854019       0.00158754       0.00060722      -0.00053644
Cl       3.28805117      -0.76577670       1.57740743      -0.00012225      -0.00015554       0.00017846
H       -3.86529809       1.55311002       1.32053461      -0.00042019      -0.00070183       0.00007727
H       -3.13641678       1.79129738      -0.27188351      -0.00045848       0.00002100      -0.00095619
H       -4.79681818       1.13783022      -0.14676404      -0.00031480       0.00018093      -0.00062899
H       -0.77354619      -1.98806914       1.31402088      -0.00124347       0.00052997      -0.00151488
H       -2.35980666      -2.47275085       0.45191805       0.00004169      -0.00009009       0.00005981
H        0.11304648       0.34333151      -1.68481100      -0.00030291      -0.00020331      -0.00014096
H       -1.45765729      -0.16889504      -2.67190080      -0.00004619      -0.00003029      -0.00018281
H        0.02189456       2.92588872      -1.72777511      -0.00005658       0.00005518      -0.00028413
H       -0.52742562       2.29743355      -0.14773521      -0.00093892      -0.00039024       0.00098539
H        0.77822578       3.51004328      -0.22911400       0.00012067      -0.00012551      -0.00007781
H        2.01830581       1.84183756       1.06032435       0.00023125       0.00022288       0.00036131
H        0.82992198       0.54522904       0.84994040      -0.00034752      -0.00023040       0.00026850
H        2.51360889      -0.65206453      -0.64274637       0.00012226      -0.00045526      -0.00038701
H        3.68695637       0.62488246      -0.28128981      -0.00124353      -0.00079356       0.00066507
