20
Properties=species:S:1:pos:R:3:forces:R:3 charge=0 spin=1 energy=-13011.7275390625 stress="3.981922347406908e-09 8.34964666851512e-11 -7.176189087410023e-10 8.34964666851512e-11 -2.878162597141909e-09 2.6674133388193688e-11 -7.176189087410023e-10 2.6674133388193688e-11 -7.04130975748285e-10" free_energy=-13011.7275390625 pbc="F F F"
C       -3.08153189      -0.11715000      -0.60519765      -0.00024812      -0.00030646       0.00000848
C       -1.86078401      -0.69238857       0.07064502       0.00010991      -0.00059104      -0.00006723
O       -1.72093223      -1.88667015       0.19183714       0.00006036       0.00162774      -0.00132419
C       -0.81247468       0.25785101       0.59117829       0.00045059       0.00016442      -0.00080894
C       -0.81720122       1.62329142       0.21484600       0.00065571       0.00023776       0.00008547
C        0.24855058       2.44019374       0.44834572       0.00016998       0.00228132       0.00067726
C        1.77894335       1.31352619      -0.72750048       0.00052300      -0.00024556       0.00055477
C        1.86516352       0.13806356      -0.37980995      -0.00102374      -0.00052175       0.00014877
C        2.41772648      -1.13861960      -0.36963199      -0.00126368       0.00081468       0.00036096
N        2.86999023      -2.19775243      -0.34008229      -0.00016955      -0.00021172       0.00011138
C        0.27243109      -0.28479399       1.22081533       0.00031836      -0.00104603      -0.00007696
H       -3.78004448      -0.92333482      -0.80940272      -0.00033136      -0.00042548      -0.00016005
H       -3.55860198       0.63870445       0.02058182       0.00138596       0.00080570      -0.00015665
H       -2.80363269       0.36156388      -1.54641805       0.00027022      -0.00149607       0.00009270
H       -1.59803485       1.97716071      -0.44698129       0.00005049       0.00007802       0.00117253
H        0.93520125       2.26560550       1.26457483      -0.00021417      -0.00082603      -0.00015641
H        0.26674332       3.44001176       0.03435208      -0.00030487       0.00195476      -0.00054101
H        2.03940718       2.16911075      -1.30925205      -0.00076041      -0.00045589      -0.00139509
H        0.94445693       0.31371606       1.81809276      -0.00102766      -0.00072026       0.00031242
H        0.30857409      -1.35699948       1.36395749       0.00134858      -0.00111873       0.00116196
