11
Properties=species:S:1:pos:R:3:forces:R:3 charge=0 spin=1 energy=-11722.4306640625 stress="-1.651837833183123e-10 -1.8894492914700578e-10 -3.8069736252310804e-10 -1.8894492914700578e-10 4.820264187799239e-10 -1.2315131137086155e-09 -3.8069736252310804e-10 -1.2315131137086155e-09 3.838090401053762e-10" free_energy=-11722.4306640625 pbc="F F F"
N        1.96238303      -0.03746145      -0.97910108       0.00063628      -0.00039972       0.00006184
C        1.84617928      -0.07658596       0.28924229       0.00003481       0.00037940      -0.00040656
O        1.97315442      -0.10634679       1.42348952       0.00013338       0.00059057       0.00008267
N       -0.41523948      -0.09046252      -0.43919463      -0.00011367      -0.00006366       0.00015721
C       -0.96043884       1.08607440      -0.12025595      -0.00050515       0.00041962      -0.00006756
N       -1.35367589       2.14227881       0.13186181       0.00042634      -0.00046420       0.00053788
C       -1.19867857      -1.21082894      -0.21053159      -0.00034344      -0.00009334       0.00003576
O       -2.31203974      -1.23006393       0.24363645       0.00020671       0.00004068      -0.00066459
H        2.87248135       0.06443788      -1.40957936      -0.00032007      -0.00026906      -0.00000602
H        0.92554122      -0.05031517      -1.32344786      -0.00024490      -0.00023555       0.00031049
H       -0.66988679      -2.13533634      -0.49892960       0.00008959       0.00009528      -0.00004118
