24
Properties=species:S:1:pos:R:3:forces:R:3 charge=0 spin=1 energy=-14087.2705078125 stress="1.8425957426515538e-09 5.32088484384019e-10 -8.532453632525971e-10 5.32088484384019e-10 4.967009581413606e-10 -1.0542484663034202e-09 -8.532453632525971e-10 -1.0542484663034202e-09 -2.251817399212541e-09" free_energy=-14087.2705078125 pbc="F F F"
C        2.59894246      -1.65233668      -0.69320596      -0.00030288      -0.00045525       0.00019236
C        1.31283447      -1.20898898      -0.02685578      -0.00019491       0.00064945      -0.00031640
C        1.24184422      -0.62016807       1.25867688      -0.00045538       0.00039855       0.00003272
C        1.86983436       0.59610301       1.13465195       0.00057025       0.00020802       0.00044852
C        1.78328008       0.91686808      -0.23771294      -0.00004140       0.00078037       0.00047882
C        0.50814170       1.26236778      -0.99220441      -0.00003210      -0.00075669      -0.00022422
C       -0.77918575       0.97946239      -0.26267703      -0.00022304      -0.00002696       0.00028217
O       -1.13463264       1.50684092       0.75817584       0.00087045       0.00087976       0.00070968
O       -1.54960892       0.11084923      -0.95475994      -0.00041932       0.00065660      -0.00003952
N       -2.83868938      -0.12928552      -0.36591124      -0.00077371      -0.00050592      -0.00045437
C       -2.72487784      -1.34910540       0.42312684      -0.00026700      -0.00004610       0.00079858
H        2.73665924      -2.72661619      -0.52998612      -0.00010658       0.00002107       0.00030228
H        3.46039327      -1.12719746      -0.28488400      -0.00098266       0.00007994      -0.00005056
H        2.57675538      -1.49864806      -1.77379291      -0.00055210       0.00007466      -0.00051853
H        0.46281532      -1.81081488      -0.36307719       0.00105932      -0.00057787      -0.00034004
H        0.69396667      -1.01748378       2.10648214       0.00055522      -0.00020652      -0.00010076
H        2.41584645       1.16464127       1.87870530      -0.00053424      -0.00029369       0.00101857
H        2.62563607       1.43953311      -0.70132173       0.00083268      -0.00052854      -0.00042084
H        0.51179486       2.34530786      -1.16136646      -0.00112870      -0.00060011      -0.00056762
H        0.47552503       0.78791957      -1.97246287       0.00045568      -0.00019632      -0.00010680
H       -2.94951888       0.65114139       0.28067127       0.00047749      -0.00011921      -0.00025022
H       -2.53644417      -2.19222335      -0.23980650       0.00131206       0.00008279      -0.00155224
H       -3.68745498      -1.50427235       0.91108102      -0.00054795      -0.00032471       0.00053945
H       -1.93976703      -1.29721390       1.18452384       0.00042844       0.00080670       0.00013921
