24
Properties=species:S:1:pos:R:3:forces:R:3 charge=0 spin=1 energy=-24912.53515625 stress="-6.965928944779876e-10 -2.212233063403346e-09 3.0688032670589394e-10 -2.212233063403346e-09 3.044655638717586e-10 -7.156098491556406e-10 3.0688032670589394e-10 -7.156098491556406e-10 1.2027813189874337e-09" free_energy=-24912.53515625 pbc="F F F"
C        0.96980732      -2.16570715       0.75531907       0.00026736       0.00082447      -0.00058007
C        0.08531344      -0.98855025       0.45412434      -0.00059930       0.00029898      -0.00000753
C       -1.28504530      -1.12180825       0.28205435      -0.00065568      -0.00134543       0.00047548
C       -2.11217673      -0.04545368      -0.02402870       0.00009985      -0.00011848       0.00116463
C       -3.56880443      -0.18969562      -0.21730269      -0.00011694      -0.00000584       0.00083867
O       -4.32377602       0.71265047      -0.47985357      -0.00080898      -0.00099313      -0.00086136
O       -4.00091960      -1.46162725      -0.06862637       0.00034524      -0.00010499       0.00113663
C       -1.55905124       1.22666396      -0.14957328       0.00057060      -0.00029951       0.00022341
C       -0.21348007       1.37568457       0.02604391       0.00079581       0.00105742       0.00058886
F        0.37900009       2.59344495      -0.03112970       0.00163232       0.00097871      -0.00024953
C        0.61254298       0.28853224       0.29836498      -0.00008345       0.00060511      -0.00020493
O        3.57688630      -0.33391638       0.41162429       0.00035866      -0.00041106       0.00072049
N        3.06597718      -0.24612041      -0.72208169       0.00017184      -0.00046605       0.00073140
O        3.56772329      -0.67623144      -1.71440581       0.00017386       0.00008480       0.00076361
O        1.90393579       0.37768265      -0.84452793      -0.00020060      -0.00008798       0.00071239
O        1.69417515       0.74678306       1.59932069      -0.00004333      -0.00009570      -0.00068542
H        0.36253167      -3.04653534       0.95351308      -0.00064959       0.00132734      -0.00191663
H        1.62766388      -2.40127643      -0.08384539      -0.00036746      -0.00026434      -0.00060891
H        1.59594219      -1.98383067       1.62985454       0.00016481       0.00122517      -0.00071646
H       -1.71979937      -2.10723442       0.38624729      -0.00215076      -0.00114357       0.00055164
H       -4.95683316      -1.43389737      -0.21799514       0.00055259      -0.00033876      -0.00059878
H       -2.18037433       2.08239821      -0.37772921       0.00058180      -0.00066181      -0.00068546
H        2.59974447       0.38367978       1.28936538       0.00007328       0.00005516      -0.00075902
H        1.72428648       1.71534478       1.54368754      -0.00011148      -0.00012068      -0.00003344
