14
Properties=species:S:1:pos:R:3:forces:R:3 charge=0 spin=1 energy=-19762.630859375 stress="1.2927410253382732e-09 -1.9492260583398036e-10 3.3861788373279467e-10 -1.9492260583398036e-10 2.747582994455655e-10 -6.127478385797858e-11 3.3861788373279467e-10 -6.127478385797858e-11 -8.968574216616787e-10" free_energy=-19762.630859375 pbc="F F F"
C        0.57474445      -0.90559429       0.70825734       0.00011081      -0.00017223      -0.00009385
C        1.76888986      -0.80784953      -0.10536018      -0.00072014      -0.00036262       0.00011694
N        2.72406070      -0.71229198      -0.73481763       0.00081085      -0.00033449       0.00025098
C        0.04459882       0.34846140       1.23404249       0.00009948       0.00036988      -0.00005742
Cl      -2.17790575      -0.75034444      -0.43269560       0.00004733      -0.00036627       0.00043616
N       -0.01816873       1.45843258       0.59478727      -0.00062856       0.00004971      -0.00038606
C        0.29253053       1.65164158      -0.82694191      -0.00018024      -0.00014430      -0.00107284
H       -0.38240130      -1.19115514       0.07124117      -0.00058481      -0.00045149      -0.00076944
H        0.68137234      -1.64891751       1.49239054      -0.00004805       0.00061458      -0.00019298
H       -0.41954122       0.34181796       2.21227729       0.00060679      -0.00025228       0.00019026
H       -0.54228154       2.19625619       1.04177169      -0.00001979       0.00016481       0.00136387
H       -0.21539370       0.85886581      -1.37791950       0.00130010       0.00164568       0.00081497
H       -0.11685105       2.61088408      -1.12470103       0.00083958      -0.00130738      -0.00108165
H        1.36549659       1.63178329      -0.99110195      -0.00163333       0.00054646       0.00048086
