35
Properties=species:S:1:pos:R:3:forces:R:3 charge=0 spin=1 energy=-21856.412109375 stress="-2.354783701363772e-09 -4.6367934491975404e-10 2.900004125727662e-10 -4.6367934491975404e-10 2.7121884738079416e-09 -1.2627913159590776e-09 2.900004125727662e-10 -1.2627913159590776e-09 -1.833593554767532e-10" free_energy=-21856.412109375 pbc="F F F"
C       -3.99557536      -1.49984228      -0.99489125      -0.00083062      -0.00029311       0.00042319
C       -3.43927829      -1.18277554       0.38017241      -0.00054380       0.00021808      -0.00085264
N       -2.23350392      -1.97036697       0.67062049       0.00018674       0.00205880       0.00033689
N       -1.13258956      -1.51633542      -0.10752997       0.00090015      -0.00052601      -0.00008129
C       -0.13709935      -0.61972522       0.67439566       0.00039479      -0.00023720       0.00104606
O       -0.49969577      -0.26469948       1.77169777      -0.00084464      -0.00050783       0.00035018
C        1.28269694      -0.80253394       0.25489118       0.00035450       0.00154623       0.00006843
C        2.25210735      -0.73546138       1.24641676       0.00042412       0.00075006      -0.00005654
C        3.58933517      -0.90533587       0.91933848       0.00057256       0.00023674       0.00049904
C        3.95736879      -1.14484238      -0.39613300       0.00013609      -0.00038074       0.00038095
C        2.98771393      -1.20782214      -1.38904771       0.00023792       0.00069083       0.00018260
C        1.65189861      -1.03381113      -1.06692578       0.00042495       0.00155344       0.00002552
O       -0.70775449       0.65231649      -0.71079193       0.00017428      -0.00012439       0.00041391
C       -1.25004194       1.80664090      -0.15679911       0.00036474      -0.00012445       0.00050782
C       -0.31767379       3.00686092      -0.22750387       0.00001377      -0.00009513       0.00056070
C        1.15276066       2.71461632      -0.35004590      -0.00020587      -0.00078475      -0.00042468
O       -0.76020274       4.12881697      -0.15157190       0.00057063      -0.00016201       0.00036461
H       -3.30288965      -1.21063728      -1.78778139      -0.00056331      -0.00063504      -0.00042125
H       -4.92034212      -0.94779494      -1.16091663       0.00021374      -0.00040847       0.00041391
H       -4.20204959      -2.56636118      -1.08834965      -0.00012049       0.00082651       0.00001615
H       -3.25099150      -0.10826611       0.48346640      -0.00144022      -0.00144504       0.00060555
H       -4.15879177      -1.46552523       1.14922070      -0.00044528       0.00139579      -0.00009398
H       -1.95702537      -1.77668006       1.63248011      -0.00000256      -0.00032988      -0.00135118
H       -0.67173470      -2.29559443      -0.56729548      -0.00074950      -0.00041816      -0.00217685
H        1.94336075      -0.54494358       2.26555380      -0.00086254       0.00011797      -0.00036809
H        4.34310901      -0.85159001       1.69373008       0.00062802       0.00146065       0.00056048
H        5.00071974      -1.27660287      -0.65173430      -0.00004855      -0.00166282      -0.00055216
H        3.27497947      -1.37809582      -2.41837726      -0.00073037      -0.00014938      -0.00007412
H        0.90702477      -1.02708219      -1.85247839       0.00075501      -0.00053473      -0.00036390
H       -1.32694907      -0.59640209      -0.75115084       0.00147703       0.00004740       0.00111210
H       -1.46350178       1.66230201       0.91931653      -0.00077806       0.00009396      -0.00021468
H       -2.19352279       2.09380953      -0.63375806       0.00048190      -0.00131209       0.00054523
H        1.47328028       2.09007518       0.48734479       0.00067469      -0.00029277      -0.00045276
H        1.71258833       3.64612615      -0.36370528      -0.00006142      -0.00094713       0.00036559
H        1.33790975       2.13235311      -1.25327744      -0.00075760       0.00037448      -0.00129480
