22
Properties=species:S:1:pos:R:3:forces:R:3 charge=0 spin=1 energy=-14715.3466796875 stress="1.3506277207753214e-09 -4.83068696155442e-09 1.2393152060141688e-09 -4.83068696155442e-09 -1.5966793442956373e-09 1.7481470437896718e-10 1.2393152060141688e-09 1.7481470437896718e-10 -1.2663006199176152e-09" free_energy=-14715.3466796875 pbc="F F F"
N        1.38799951      -1.24031920      -0.56734971       0.00079682       0.00065374       0.00055936
C        2.41883438      -0.63889276       0.19433577      -0.00098458       0.00068560      -0.00140977
F        3.50030913      -0.19743203      -0.57484448      -0.00072919      -0.00064996      -0.00148442
C        1.68418752       0.53445401       0.72433886       0.00022715       0.00017603       0.00102583
C        1.65850487       1.78914033      -0.04436622      -0.00019518      -0.00049458       0.00137163
O       -0.39829302      -0.11533656       0.69683976      -0.00095105      -0.00109631      -0.00011772
C       -1.27895523       0.66081491      -0.07062269       0.00006711       0.00031311       0.00081821
C       -2.68078915       0.06649505      -0.18148551       0.00087786      -0.00093025      -0.00018853
C       -2.90729366      -1.29534579       0.40922301       0.00034142      -0.00062367       0.00001103
O       -3.54380802       0.70229493      -0.73516824       0.00020558      -0.00045931      -0.00193939
H        0.19066234      -0.79448854       0.06838557      -0.00013778      -0.00007507       0.00017598
H        1.43686231      -0.84166376      -1.50497880      -0.00159745       0.00053537       0.00029540
H        2.81661384      -1.29757402       0.96821858      -0.00189710      -0.00008533      -0.00069152
H        1.39593579       0.56297569       1.76451500       0.00017061       0.00176086       0.00093153
H        2.62730818       2.26878880       0.14665676       0.00191462      -0.00070705      -0.00031787
H        1.61084677       1.61311289      -1.11760529       0.00125316       0.00158225      -0.00137454
H        0.86896638       2.46187176       0.27661941       0.00016825       0.00056507       0.00122052
H       -0.91619394       0.80305524      -1.09834975       0.00106617       0.00058763       0.00068280
H       -1.39441291       1.65372057       0.37623950       0.00131319      -0.00002795      -0.00127193
H       -2.64565173      -1.28811939       1.46780321      -0.00139180       0.00015533       0.00034575
H       -2.24530370      -2.02355800      -0.06342372       0.00026506      -0.00033058       0.00043304
H       -3.94632966      -1.58046415       0.26850897      -0.00078300      -0.00153546       0.00092515
