22
Properties=species:S:1:pos:R:3:forces:R:3 charge=0 spin=1 energy=-90829.4765625 stress="1.326064813511607e-09 1.7391640905195516e-10 -3.589260555436624e-10 1.7391640905195516e-10 1.1157488266633209e-09 4.4990910996745015e-10 -3.589260555436624e-10 4.4990910996745015e-10 -3.918393387536412e-10" free_energy=-90829.4765625 pbc="F F F"
C       -0.72845079      -2.49783567       0.20252512       0.00065786      -0.00132738      -0.00189033
N       -1.74509003      -1.54165818      -0.21633794      -0.00013274       0.00008798      -0.00011551
C       -3.10997586      -1.91551907       0.12241959       0.00000407       0.00007639       0.00056298
C       -1.48632082      -0.33097264      -0.63870645      -0.00024635       0.00005770      -0.00026956
C       -1.66097198       1.26852004       1.16717679      -0.00024611       0.00025117       0.00003855
C       -1.87930823       2.30221620       0.20905141      -0.00002581      -0.00010113       0.00012243
O       -2.69853387       2.26073101      -0.71213410       0.00014615       0.00008970      -0.00041091
C       -0.12873300       0.11166048      -1.04526072      -0.00008160      -0.00012568       0.00021434
S        0.73582372       0.53584464       0.50113535       0.00001353      -0.00005132       0.00022627
Br       2.82899471      -0.13300366      -0.13993018       0.00014260       0.00050998      -0.00014821
H       -0.91359924      -3.45360038      -0.28818392       0.00014345       0.00149965       0.00125894
H        0.26888520      -2.14060973      -0.03280213      -0.00219178      -0.00054762       0.00025743
H       -0.79500571      -2.63440633       1.28366013       0.00049497      -0.00028892       0.00042470
H       -3.79649402      -1.14551304      -0.21811365       0.00059417      -0.00027303      -0.00044157
H       -3.35784074      -2.86480947      -0.35210827       0.00035951       0.00086966      -0.00004783
H       -3.19908504      -2.03107235       1.20442507       0.00029275      -0.00014466       0.00004388
H       -2.33519070       0.28229018      -0.92982204      -0.00032136       0.00003082      -0.00034267
H       -2.49934739       0.61527215       1.37882888      -0.00019354      -0.00013261       0.00025223
H       -1.08173811       1.53559256       2.04266455       0.00018393      -0.00003335      -0.00017793
H       -1.19660925       3.17057154       0.27924540       0.00027153      -0.00028004       0.00053837
H       -0.21021043       0.98676245      -1.68495800      -0.00031492      -0.00029409      -0.00055000
H        0.42947160      -0.66751072      -1.56107487       0.00044994       0.00012767       0.00045418
