15
Properties=species:S:1:pos:R:3:forces:R:3 charge=0 spin=1 energy=-22025.49609375 stress="-1.8752277508582438e-09 -5.6249623014981154e-11 -1.9196209066763004e-09 -5.6249623014981154e-11 -4.549606469339551e-09 1.7253841688713578e-09 -1.9196209066763004e-09 1.7253841688713578e-09 -2.8148110509107482e-09" free_energy=-22025.49609375 pbc="F F F"
F        2.94002784      -0.47717436      -0.20706032      -0.00025381      -0.00008636      -0.00061143
C        1.76468198      -0.02776163       0.31679839       0.00020543       0.00003123       0.00029565
C        1.33963502       1.23412501      -0.08494849       0.00083736       0.00019142      -0.00003386
C        0.04767336       1.63512708       0.15169224      -0.00025585       0.00003993       0.00086067
C       -1.09736785      -0.01589881      -0.78517143      -0.00120121       0.00136874      -0.00122428
Cl      -2.58644527       0.11053703       0.14869440      -0.00096530      -0.00043079      -0.00028610
N       -0.40289229      -1.10762841      -0.63267999       0.00123653      -0.00069872       0.00014454
C        0.91813184      -0.95935730       0.86729271       0.00018084      -0.00022042       0.00072482
H        1.97313708       1.77619729      -0.77747579      -0.00098832       0.00104533      -0.00067563
H       -0.31281461       2.56448829      -0.27107060       0.00055739       0.00059557       0.00021916
H       -0.47279655       1.30357964       1.03703337       0.00215970      -0.00001777       0.00058050
H       -1.15719662       0.53520770      -1.71266493      -0.00182067       0.00029228      -0.00100780
H        0.29151132      -1.19646985      -1.36977131       0.00123885      -0.00081974       0.00016522
H        0.14055016      -0.65041132       1.54734008      -0.00066248      -0.00059707      -0.00101084
H        1.27107458      -1.97380034       0.98707165      -0.00026836      -0.00069362       0.00185943
