14
Properties=species:S:1:pos:R:3:forces:R:3 charge=0 spin=1 energy=-8267.365234375 stress="-1.167026919546288e-09 -3.5942565590474373e-10 1.2054868214761427e-09 -3.5942565590474373e-10 -9.867070493996266e-10 -1.2879797228748657e-09 1.2054868214761427e-09 -1.2879797228748657e-09 -1.497867496702554e-09" free_energy=-8267.365234375 pbc="F F F"
O       -1.93469680       0.82608733       0.32613952      -0.00066483       0.00021392      -0.00065488
C       -0.98871043       0.02065487      -0.01941700      -0.00024959       0.00002442       0.00010355
N       -1.17281499      -1.30873672      -0.14916668      -0.00004541      -0.00009079       0.00074379
N        0.08809897       0.73577299      -0.23267951       0.00009722       0.00007158       0.00027261
C        1.39114562       0.24359804      -0.61124304       0.00047100       0.00021103      -0.00120854
C        2.22250741      -0.21883526       0.57982840       0.00045639       0.00045341      -0.00011307
H       -0.88431499       1.57403101       0.12929652       0.00023504      -0.00066894       0.00091090
H       -2.02909814      -1.69533878       0.20425387      -0.00012088      -0.00011942       0.00028570
H       -0.38054896      -1.91705643      -0.23981411       0.00002754       0.00029966      -0.00072598
H        1.28466677      -0.57139994      -1.33773844      -0.00074099      -0.00164860      -0.00083482
H        1.91346237       1.04443179      -1.13532706       0.00161204       0.00104812       0.00054790
H        3.20587534      -0.56698892       0.25986963      -0.00016375      -0.00131832      -0.00108111
H        1.72835049      -1.03513825       1.11100309       0.00063811       0.00036207       0.00054253
H        2.35708733       0.59966827       1.28675480      -0.00155175       0.00116190       0.00121153
