29
Properties=species:S:1:pos:R:3:forces:R:3 charge=0 spin=1 energy=-19820.255859375 stress="-1.7192504087049088e-09 -9.692634195257455e-11 -1.0442049447334512e-09 -9.692634195257455e-11 5.10993525271175e-10 8.223972891574505e-11 -1.0442049447334512e-09 8.223972891574505e-11 4.839220690833201e-10" free_energy=-19820.255859375 pbc="F F F"
O        1.59149224       0.57216451       2.20451195      -0.00016105      -0.00080134      -0.00059444
C        1.81681700      -0.04736038       1.11004838       0.00067440       0.00037611       0.00000823
C        2.45401580      -1.29721913       0.91802033       0.00036280       0.00121358       0.00041158
C        3.11392297      -1.43976466      -0.26945687      -0.00011995      -0.00023434       0.00084198
C        3.09665971      -0.45066545      -1.30270616      -0.00015666      -0.00015008       0.00083369
C        2.31464044       0.65345160      -1.19049411       0.00047225      -0.00154126      -0.00080606
C        1.52255707       0.82866170      -0.00460297       0.00136504       0.00038193      -0.00015172
C        0.10615416       1.31094652      -0.24367407       0.00030482       0.00031102      -0.00028110
O       -0.11829866       2.07112512      -1.15219912      -0.00031164       0.00069639      -0.00013733
C       -1.01249664       0.82193468       0.65717151       0.00004549       0.00045112       0.00021571
C       -2.16888144       0.31997131      -0.19694985      -0.00009298       0.00003171       0.00134847
O       -3.15840200      -0.11021656       0.69518513      -0.00121748      -0.00120364      -0.00095940
C       -4.39043699      -0.40237465       0.05577941      -0.00113216      -0.00005728       0.00002535
O       -1.79165267      -0.69014605      -1.10014586       0.00110599       0.00115070       0.00154331
C       -1.19441438      -1.83290268      -0.50597504      -0.00114405       0.00179476      -0.00022160
H        1.53841519       1.53314612       1.20602636      -0.00007837      -0.00000232       0.00013513
H        2.53843695      -2.01080347       1.72582802       0.00026319       0.00002523      -0.00007170
H        3.70409915      -2.33419674      -0.43198693      -0.00067653      -0.00007784       0.00011425
H        3.66603505      -0.62914509      -2.20414929      -0.00067422      -0.00037415      -0.00003719
H        2.18540824       1.34802741      -2.00948525      -0.00121416      -0.00003785      -0.00007024
H       -0.69499964       0.04590769       1.34985806       0.00154841       0.00043388       0.00026840
H       -1.36685668       1.66373622       1.25468610       0.00148464      -0.00009891      -0.00002286
H       -2.54453683       1.12214942      -0.83821038      -0.00014727      -0.00156188      -0.00118364
H       -4.28586220      -1.22794762      -0.65092213       0.00001992      -0.00033504      -0.00066866
H       -4.76680711       0.47566215      -0.47888558      -0.00106826       0.00112285       0.00099054
H       -5.09566621      -0.67776276       0.83599705      -0.00116813      -0.00087441      -0.00029461
H       -1.26394537      -2.63715666      -1.23494423       0.00124074       0.00032939      -0.00015168
H       -1.71597384      -2.12733356       0.40719261       0.00101055      -0.00046403      -0.00185982
H       -0.13724332      -1.66028899      -0.28146707      -0.00053543      -0.00050426       0.00077552
