26
Properties=species:S:1:pos:R:3:forces:R:3 charge=0 spin=1 energy=-23717.91015625 stress="1.0992820542732318e-10 1.951844380565504e-10 -1.4150959917746952e-11 1.951844380565504e-10 7.01076904863207e-11 -7.787506056677884e-11 -1.4150959917746952e-11 -7.787506056677884e-11 7.752714026310059e-10" free_energy=-23717.91015625 pbc="F F F"
O        5.10853686       1.06776889      -0.32854242      -0.00038508       0.00003740       0.00035775
C        4.31833433       0.28668141       0.14858263       0.00022435       0.00052065       0.00031060
O        4.12978556       0.16398826       1.48829855      -0.00058992      -0.00087734      -0.00102594
N        3.53939333      -0.56384656      -0.55933923      -0.00026725      -0.00011246      -0.00028820
C        2.47261440      -1.39371557      -0.02189844       0.00041488      -0.00015149       0.00052826
C        1.10553469      -0.75277732      -0.07462729      -0.00005952       0.00007996       0.00005997
C        0.85624979       0.44625296       0.58835751       0.00003759      -0.00018165       0.00020924
C       -0.39076005       1.04697637       0.55547275       0.00012159      -0.00012033      -0.00014758
C       -1.38827139       0.40516188      -0.15147695       0.00027949      -0.00005412      -0.00016394
O       -4.22414459      -0.02359705      -0.65787449      -0.00016542      -0.00030518       0.00073263
N       -3.92464847      -0.14651306       0.55090165      -0.00031123      -0.00034460      -0.00013785
O       -4.59457730      -0.74018777       1.34309416       0.00068939       0.00058840      -0.00050977
O       -2.81367381       0.41184781       0.96232832      -0.00033203      -0.00003412      -0.00023746
C       -1.20368328      -0.77897312      -0.83177442       0.00047307       0.00015083       0.00068085
C        0.06308770      -1.34595811      -0.77366964       0.00038711       0.00006801      -0.00012605
O       -2.31849816       1.52800328      -1.18521586       0.00024450       0.00095987       0.00079912
H        4.75667221       0.78248641       1.88573523       0.00072679       0.00049392       0.00034299
H        3.57660405      -0.40831938      -1.55254406       0.00022479      -0.00042182       0.00034505
H        2.45485647      -2.32867369      -0.58283888      -0.00009878       0.00006139       0.00017330
H        2.73891166      -1.64473504       1.00315024       0.00004045       0.00033966      -0.00087325
H        1.64910243       0.92171441       1.15304760      -0.00059740      -0.00017896      -0.00050266
H       -0.59676946       1.95655132       1.10320406      -0.00035536       0.00018251       0.00022696
H       -2.00843882      -1.24260100      -1.38419897      -0.00047436      -0.00013535      -0.00064234
H        0.23165979      -2.27974806      -1.29796946      -0.00016657       0.00000633       0.00040518
H       -3.20869755       1.03832186      -1.16728374      -0.00019956       0.00014961       0.00002095
H       -2.43749037       2.33813088      -0.66830885       0.00013888      -0.00072120      -0.00053769
