16
Properties=species:S:1:pos:R:3:forces:R:3 charge=0 spin=1 energy=-12923.6328125 stress="5.850336881607632e-10 -2.359934470064218e-10 3.460284281331383e-10 -2.359934470064218e-10 -5.077855358415206e-10 -1.828558970906613e-10 3.460284281331383e-10 -1.828558970906613e-10 -1.237190905278851e-10" free_energy=-12923.6328125 pbc="F F F"
C       -0.62648089       1.92852162       0.57617656       0.00016505       0.00005907      -0.00038350
C       -0.76929186       0.57862410       0.22523934      -0.00061762      -0.00052178       0.00045788
C       -2.20592859       0.09411598       0.15013229       0.00041276      -0.00009358      -0.00107829
O       -2.54142749      -1.03968339      -0.03773942      -0.00000840       0.00005680       0.00022600
C        0.27346567      -0.42655149       0.03306099       0.00041816       0.00026572       0.00003198
C        0.09520428      -1.89477559       0.21894296      -0.00069760       0.00001255      -0.00082374
N        1.56022040       0.03222855      -0.39138699      -0.00011659       0.00006110      -0.00022607
O        1.65053878       1.21506296      -0.75037259       0.00004513      -0.00040370       0.00014682
O        2.51240742      -0.74196264      -0.38839245      -0.00026065       0.00024539      -0.00002448
H       -0.54934415       0.65197831      -0.93933475       0.00015211      -0.00015290       0.00033855
H       -1.51658634       2.54172231       0.58741032      -0.00051248       0.00019366       0.00023265
H        0.33721340       2.40036879       0.68240630       0.00060314       0.00038755       0.00000427
H       -2.94206693       0.91074242       0.25666806      -0.00008871       0.00012657       0.00028127
H       -0.50254099      -2.08931487       1.10940904       0.00012165      -0.00034569       0.00083703
H        1.07495644      -2.35402513       0.30827220      -0.00044283       0.00011191      -0.00016342
H       -0.43127917      -2.36603193      -0.61453187       0.00082722      -0.00000279       0.00014260
