16
Properties=species:S:1:pos:R:3:forces:R:3 charge=0 spin=1 energy=-49976.51171875 stress="-6.38731567637052e-10 -1.9807341877786655e-10 4.159851907381551e-10 -1.9807341877786655e-10 4.3879863631524074e-10 5.24942977975229e-10 4.159851907381551e-10 5.24942977975229e-10 5.232469318938726e-11" free_energy=-49976.51171875 pbc="F F F"
O        1.66743710      -1.77625607       0.74022358      -0.00049262      -0.00052637       0.00084364
C        1.60922285      -0.88850852      -0.04396073       0.00060177       0.00031769      -0.00063455
C        2.66293302       0.16213028      -0.29888458       0.00143173       0.00054758      -0.00152382
C        3.65130260       0.24874095       0.84070534       0.00020429      -0.00078289      -0.00041959
F        3.01628634       0.79237247       1.94457635      -0.00114775       0.00076070      -0.00010331
O        0.49988757      -0.76622745      -0.87065318      -0.00109661       0.00143898      -0.00016695
S       -1.36449777      -0.54828642       0.11146052      -0.00018853      -0.00076401      -0.00046325
O       -1.64999315      -1.90463793      -0.15784814       0.00024700       0.00044405       0.00061131
O       -0.82098913       0.00820806       1.28720795      -0.00013143      -0.00038439       0.00038934
Cl      -3.05333159       0.40386833      -0.33182595      -0.00025143       0.00002464      -0.00003859
Cl      -0.46788903       1.64375156      -1.59606642       0.00011164      -0.00059634      -0.00004114
H        2.17877057       1.12701021      -0.47080677       0.00040789      -0.00094685       0.00131809
H        3.18169357      -0.10785965      -1.22414730      -0.00052074       0.00104281       0.00129081
H        4.02703582      -0.73630407       1.11746204       0.00023794      -0.00069354       0.00057413
H        4.48151493       0.90290710       0.57378544       0.00025259       0.00007181      -0.00105324
H        0.44915628       0.13226115      -1.37263815       0.00033383       0.00004654      -0.00058264
