24
Properties=species:S:1:pos:R:3:forces:R:3 charge=0 spin=1 energy=-18591.720703125 stress="2.193538461980893e-09 -2.0657870969387204e-09 2.6970039535001433e-09 -2.0657870969387204e-09 3.137807236264223e-10 2.6466824287751933e-09 2.6970039535001433e-09 2.6466824287751933e-09 -5.705856898075012e-10" free_energy=-18591.720703125 pbc="F F F"
C        1.10971093       2.52792967       0.04413123      -0.00006982      -0.00074652       0.00066711
N        1.28610555       1.14905782      -0.41571273      -0.00014085       0.00020510      -0.00145653
C        0.44680546       0.17100383       0.16734749       0.00034505       0.00008303      -0.00104278
N        0.73606039      -1.21860732      -0.35298490       0.00093889       0.00076666       0.00104326
O        0.59645175      -1.28050075      -1.66701997      -0.00082660       0.00058910       0.00122476
O        0.63348036       0.14470907       1.56100177      -0.00127530       0.00099545      -0.00030094
C       -0.07890295      -0.80093648       2.35853303      -0.00056318       0.00025280       0.00010908
C       -1.03519309       0.40146795      -0.24376301       0.00103796       0.00050932      -0.00132424
O       -1.45177983       1.38020302      -0.79075140       0.00085205       0.00052366      -0.00079764
O       -1.79360949      -0.64341136       0.10213797       0.00076038       0.00129487       0.00125636
C       -3.16265625      -0.55592580      -0.31425412       0.00108730      -0.00032908       0.00076514
O        2.44974635      -1.21474258      -0.52136842      -0.00084257      -0.00007872       0.00001785
H        1.95658204       3.10354341      -0.32519952       0.00021274       0.00019059       0.00008146
H        1.07954055       2.61259102       1.13461263       0.00037330      -0.00021625       0.00140712
H        0.20173359       2.95065604      -0.37311028       0.00103481       0.00027007      -0.00087003
H        2.24023321       0.85871010      -0.24947790      -0.00069010      -0.00016046      -0.00181188
H        0.46842193      -0.86286394       3.29667533      -0.00111268      -0.00155741       0.00069273
H       -1.09664638      -0.46239292       2.55856912      -0.00123492      -0.00150599       0.00029949
H       -0.11397828      -1.78055788       1.88607602       0.00010789       0.00039737      -0.00053076
H       -3.64192937       0.31173321       0.13567081       0.00043851      -0.00057860      -0.00069731
H       -3.63128876      -1.47437641       0.02393192       0.00062516      -0.00016100       0.00077101
H       -3.21468469      -0.47283697      -1.39796701      -0.00178175      -0.00104561       0.00051180
H        1.87253142      -1.30315047      -1.56754436       0.00022647       0.00028685       0.00053781
H        2.68761556      -2.09648228      -0.19889369       0.00049736       0.00001507      -0.00055268
