31
Properties=species:S:1:pos:R:3:forces:R:3 charge=0 spin=1 energy=-20318.326171875 stress="-1.2033865015581569e-09 1.3094338946473272e-09 -3.8088410203585e-10 1.3094338946473272e-09 -8.818026309143079e-10 -2.543419919120993e-10 -3.8088410203585e-10 -2.543419919120993e-10 -1.2666410142969653e-09" free_energy=-20318.326171875 pbc="F F F"
C        1.48523976      -0.62655376       0.95025444       0.00043412      -0.00064296      -0.00060355
C        0.21121056      -0.91558703      -0.69007162       0.00036807      -0.00063174      -0.00085253
C       -0.70988327       0.11814119      -0.57033540       0.00013143      -0.00033598       0.00016932
C       -0.31914809       1.40631591      -0.86728119       0.00016391      -0.00052387       0.00042149
C       -1.17058051       2.60697866      -0.66346129      -0.00011584       0.00053786       0.00075077
N       -1.87951550      -0.08259544       0.23508512       0.00080499       0.00136377      -0.00057817
C       -1.81562459       0.12035101       1.68137521       0.00098472       0.00172687      -0.00023429
C       -3.04312054      -0.53985577      -0.28242753      -0.00065023      -0.00077200      -0.00126737
O       -4.04241437      -0.78484083       0.35972922      -0.00048664      -0.00073616      -0.00033659
O       -2.99302884      -0.69498338      -1.62875105      -0.00152542      -0.00087184      -0.00077966
C        2.43650387      -1.67697122       0.80846798       0.00014901       0.00008004       0.00044982
C        3.57166431      -1.48416370       0.08303953      -0.00041592      -0.00042884      -0.00016203
C        3.84765773      -0.20447455      -0.46439287      -0.00031543       0.00054014      -0.00016093
C        3.00762273       0.84928435      -0.25731585       0.00045998       0.00048012       0.00019097
C        1.81892249       0.69838457       0.52783113      -0.00057083      -0.00010616       0.00033063
O        0.98822289       1.64996483       0.67454795      -0.00030220      -0.00025982      -0.00006026
H        0.70532593      -0.72994386       1.69084402       0.00042829      -0.00044271      -0.00014818
H        0.99419023      -0.84307405      -1.43360616       0.00061728      -0.00017139      -0.00106430
H       -0.08332237      -1.92139931      -0.42187078       0.00035235      -0.00030994       0.00032851
H        0.50965868       1.51738492      -1.55461539      -0.00086007      -0.00128496       0.00035405
H       -0.54018003       3.47700285      -0.49252858      -0.00085618       0.00047385      -0.00067034
H       -1.77389151       2.78900030      -1.55630766      -0.00039151       0.00051710       0.00050044
H       -1.84576988       2.48250176       0.18043949      -0.00017305      -0.00016333      -0.00077500
H       -1.06542947       0.87869210       1.89460479       0.00045708      -0.00022725       0.00122944
H       -1.55886510      -0.80453582       2.20515064      -0.00051035      -0.00050709       0.00132219
H       -2.79003677       0.44675032       2.03381517      -0.00031796       0.00082997       0.00036709
H       -3.87357149      -1.01222817      -1.86741811       0.00122522       0.00175365       0.00059438
H        2.22505881      -2.64217516       1.25106579      -0.00042233      -0.00058702       0.00097460
H        4.27543338      -2.29278457      -0.06308974       0.00089438       0.00101246      -0.00046469
H        4.75471812      -0.06375784      -1.03978532      -0.00008532      -0.00088494       0.00009735
H        3.22699284       1.83537169      -0.64747195       0.00052863       0.00057223       0.00007743
