29
Properties=species:S:1:pos:R:3:forces:R:3 charge=0 spin=1 energy=-25353.3671875 stress="4.932442041610807e-12 7.975900495615917e-11 1.2472647914485435e-10 7.975900495615917e-11 -1.2605076704641505e-10 -1.9937350381749042e-11 1.2472647914485435e-10 -1.9937350381749042e-11 4.210195039822118e-11" free_energy=-25353.3671875 pbc="F F F"
O       -6.52744435      -0.30813565       1.43253839      -0.00052762       0.00088888      -0.00112027
N       -5.87233218      -0.57144077       0.29708962       0.00023860       0.00007570      -0.00069211
O       -6.09426439       0.44378773      -0.46910593      -0.00029814      -0.00001132       0.00057036
C       -3.60406247       0.35378786      -0.04279829      -0.00012296       0.00072445       0.00059383
C       -2.17310262       0.50828946       0.12116712      -0.00004172       0.00172096      -0.00008708
O       -1.61584533       1.28869505       0.85062061      -0.00060976      -0.00070369       0.00037044
O       -1.49424042      -0.37129158      -0.69444050       0.00009693      -0.00151750      -0.00054665
C       -0.10782812      -0.33598565      -0.68897028       0.00001872       0.00012109       0.00044219
C        0.56167898      -1.49899809      -0.35153868       0.00028603      -0.00031166      -0.00006103
C        1.94561400      -1.52792821      -0.40514593      -0.00038956      -0.00021642      -0.00005528
C        2.66281316      -0.40107116      -0.79393268       0.00025612       0.00012697      -0.00020958
C        4.17665868      -0.44312142      -0.81015250       0.00002763      -0.00003232       0.00021452
C        4.68359361      -0.43416809       0.60844055       0.00016087      -0.00046515       0.00037223
O        5.08142296      -1.40075869       1.20644461      -0.00022399       0.00096458      -0.00043646
C        4.66029225       0.90831959       1.35071572      -0.00027442       0.00074613      -0.00017525
O        4.40823095       1.94727020       0.80872168       0.00032678      -0.00124300       0.00018901
C        1.96978557       0.75726464      -1.12629303      -0.00026925       0.00035620       0.00004347
C        0.58559258       0.79601713      -1.08049298       0.00000033       0.00056672      -0.00024100
H       -6.39021459      -1.10654428       1.96588017       0.00025986      -0.00077200       0.00125748
H       -5.19626835       0.65656175      -0.92292096       0.00033164      -0.00003558       0.00000675
H       -3.92846135      -0.43067597      -0.70371809       0.00025654      -0.00008255       0.00026470
H       -4.20032318       0.96887680       0.60087179       0.00024965      -0.00050022      -0.00061955
H       -0.00752665      -2.36898718      -0.05238748      -0.00002204      -0.00013547      -0.00008494
H        2.47488387      -2.43524543      -0.13759049       0.00017919      -0.00048995       0.00009990
H        4.53827062      -1.35281825      -1.28779935       0.00008733      -0.00008344       0.00000578
H        4.56581609       0.42901733      -1.33511863       0.00000224       0.00000347      -0.00003722
H        4.92068251       0.82651777       2.42157572      -0.00004809       0.00009505      -0.00017341
H        2.52007631       1.64407569      -1.41413507       0.00003587       0.00016600       0.00000559
H        0.04622186       1.69781942      -1.33278509       0.00001302       0.00004414       0.00010303
