28
Properties=species:S:1:pos:R:3:forces:R:3 charge=0 spin=1 energy=-85212.0078125 stress="2.198969895061964e-09 -3.232523693164069e-10 1.3542726939874683e-09 -3.232523693164069e-10 8.388451600005453e-10 -1.0223347862714505e-10 1.3542726939874683e-09 -1.0223347862714505e-10 -4.151407273500496e-10" free_energy=-85212.0078125 pbc="F F F"
C       -1.30163196       2.16464704      -1.18863268       0.00039706       0.00042848      -0.00033563
C       -0.50638744       1.93524801      -0.12001231      -0.00057754      -0.00035739       0.00038663
C       -0.31470780       2.94919674       0.97615331      -0.00019505       0.00034815      -0.00004563
C       -0.05465753       0.61142284       0.08451061      -0.00117999      -0.00086498       0.00017229
N        0.91124514       0.29444174       0.99967787      -0.00059983      -0.00024301      -0.00053111
C        1.68462014      -0.86282919       0.85095379       0.00132018       0.00019888      -0.00004891
Br       3.15970138      -0.67414918      -0.49323623      -0.00091259       0.00018676       0.00018451
C       -1.90452241      -0.12750339       1.03223013      -0.00139025      -0.00017852       0.00090211
C       -1.52690709      -1.44462117       1.40286474      -0.00125581      -0.00088629      -0.00047365
C       -1.71338904      -2.48760120       0.54319199       0.00059849       0.00077610       0.00052223
C       -2.36838434      -2.25890515      -0.69588971      -0.00109681      -0.00086755       0.00055046
C       -2.85616030      -1.03082710      -1.02545816       0.00022742      -0.00004117      -0.00103092
C       -2.73251461       0.08661219      -0.12148415       0.00142747      -0.00132507       0.00035262
O       -3.18354097       1.22676543      -0.39138813       0.00105196      -0.00107300       0.00145069
H       -1.75579213       3.13103025      -1.35127238       0.00050838       0.00065403       0.00033394
H       -1.39645285       1.44313170      -1.98691879      -0.00031092       0.00062081       0.00025800
H       -0.66418745       2.55654341       1.93574008       0.00072395       0.00006855      -0.00005958
H       -0.88166095       3.85215408       0.76305264       0.00012953       0.00071705      -0.00026832
H        0.73444075       3.23422167       1.09254548       0.00054623      -0.00082731      -0.00058228
H       -0.13887305      -0.09730504      -0.73003199      -0.00001739       0.00010231      -0.00152418
H        1.28304719       1.03908360       1.56555807      -0.00155368      -0.00078726       0.00023943
H        1.08483399      -1.68357551       0.47549382       0.00175823       0.00034550      -0.00072876
H        2.19475445      -1.12985318       1.76693751      -0.00037953      -0.00005659       0.00068188
H       -1.91902865       0.64665689       1.78924962       0.00057392       0.00052117       0.00035217
H       -1.03943872      -1.60447290       2.35729212      -0.00054204       0.00198740      -0.00031546
H       -1.38494234      -3.48535339       0.80255185      -0.00012752      -0.00041211      -0.00016198
H       -2.49992196      -3.08902212      -1.38055270       0.00132631       0.00112599       0.00048605
H       -3.39332145      -0.86283705      -1.95073639      -0.00045079      -0.00016029      -0.00076705
