14
Properties=species:S:1:pos:R:3:forces:R:3 charge=0 spin=1 energy=-101164.96875 stress="6.844903532865487e-10 -3.6600308894740863e-10 4.882989013132999e-10 -3.6600308894740863e-10 5.079227038962131e-10 2.9992303779424745e-11 4.882989013132999e-10 2.9992303779424745e-11 -2.431058410135023e-10" free_energy=-101164.96875 pbc="F F F"
N        4.12385157      -1.81079223       0.48026610      -0.00083147       0.00117099      -0.00028819
C        3.58563415      -0.80047974       0.41480392       0.00002611      -0.00030673       0.00009515
C        2.90162509       0.48199659       0.31428808       0.00008357      -0.00126523      -0.00018281
S        1.75018505       0.45772439      -1.08145430       0.00000473      -0.00010428       0.00007278
C        0.10401097      -0.27725947       0.17314490       0.00017442      -0.00008366      -0.00094154
O        0.46282584      -0.74624994       1.17166139       0.00015202      -0.00015534       0.00099311
C       -0.97931361      -0.56153194      -0.81421376       0.00039572      -0.00014788       0.00031042
Br      -2.64917173      -0.88571966       0.07403026      -0.00019979       0.00017017       0.00019483
Cl      -0.35468207       2.06705169       0.49853774      -0.00021079       0.00008103      -0.00013894
H        3.62675034       1.27819011       0.15396278       0.00045738       0.00070593      -0.00037048
H        2.33431050       0.68527146       1.22379947      -0.00055653      -0.00010265       0.00019374
H       -1.10209196       0.27004804      -1.49514392       0.00019287       0.00017636      -0.00017264
H       -0.68436081      -1.46941925      -1.34012392       0.00010169       0.00006695      -0.00020219
H        1.02748667       1.61535997      -0.65097873       0.00021005      -0.00020581       0.00043634
