16
Properties=species:S:1:pos:R:3:forces:R:3 charge=0 spin=1 energy=-100184.9609375 stress="1.7920147310501733e-10 1.3279394250886867e-10 6.578168010307195e-10 1.3279394250886867e-10 8.037692733608992e-10 -1.533919102847392e-09 6.578168010307195e-10 -1.533919102847392e-09 2.0515884546767893e-09" free_energy=-100184.9609375 pbc="F F F"
N       -2.41333614       2.30796933      -1.46275429      -0.00085659      -0.00057627       0.00033095
C       -2.44645336       1.77288234      -0.44840508      -0.00008716      -0.00073358       0.00015283
C       -2.43650427       1.12576410       0.86182106       0.00028484       0.00000301       0.00010246
C       -1.09306278       0.47681720       1.20185899       0.00052597       0.00047499      -0.00038838
C        0.13786837       1.10700203       0.75857815       0.00068158       0.00036508       0.00012656
C        1.39604848      -0.81211284       0.53020808      -0.00118378       0.00009817      -0.00005716
Br       2.80573719       0.18896496      -0.34341448       0.00031343      -0.00114752       0.00058585
S       -0.62975125      -0.81881067       0.02526833       0.00055887      -0.00072299       0.00078529
Cl      -2.61629978      -1.94651708      -0.19557221       0.00023836       0.00020054       0.00046495
H       -3.21595245       0.36390692       0.89262729       0.00090237      -0.00015559       0.00032911
H       -2.65122108       1.88014734       1.62028139      -0.00145626       0.00033631      -0.00084523
H       -1.09377601       0.11021698       2.22465624      -0.00031951       0.00038755      -0.00081223
H        0.12147054       1.70168872      -0.14418861       0.00115193       0.00105342       0.00034818
H        0.94624472       1.29617776       1.44682467       0.00002226      -0.00038059       0.00101904
H        1.53079352      -0.78693658       1.60518194      -0.00050288      -0.00000067      -0.00083790
H        1.53163430      -1.82051052       0.16071852      -0.00027348       0.00079811      -0.00130475
