15
Properties=species:S:1:pos:R:3:forces:R:3 charge=0 spin=1 energy=-83392.1875 stress="-5.940385683356197e-11 -7.584656791514988e-10 1.1462477494950107e-10 -7.584656791514988e-10 -1.4435241890708994e-09 6.046290551564582e-11 1.1462477494950107e-10 6.046290551564582e-11 -8.005333618221755e-10" free_energy=-83392.1875 pbc="F F F"
N       -4.45439599      -0.64068406      -0.84898559      -0.00054704      -0.00005156      -0.00036351
C       -3.55637690      -0.45345493      -0.16214316       0.00069201      -0.00006211       0.00051290
C       -2.39108775      -0.25907778       0.69492620      -0.00009555      -0.00052474      -0.00118620
N       -1.15548138      -0.37642786      -0.11252573       0.00061660      -0.00006407      -0.00028908
C        0.07856318      -0.37239815       0.78067395      -0.00130689       0.00018427      -0.00104487
O       -0.01078544      -0.48758113       1.94664142       0.00127046      -0.00049802       0.00104297
Br       1.61973066      -0.77293228      -0.27791206      -0.00072217       0.00040422       0.00066772
O       -0.14296189       1.66444772       0.18949968       0.00056767      -0.00038016       0.00013101
C        0.84563432       2.51260873       0.10336379       0.00089604       0.00059038       0.00085092
O        1.01266411       3.32424153      -0.77455658       0.00088072      -0.00007796      -0.00042808
H       -2.38016909       0.73699019       1.13336057      -0.00040770       0.00163887       0.00113672
H       -2.37486886      -0.99686081       1.49413473      -0.00038569      -0.00122236       0.00084966
H       -1.14548808      -1.17828710      -0.74076241       0.00015183      -0.00131474      -0.00088921
H       -0.96192900       0.56542260      -0.59356141      -0.00051039       0.00089741      -0.00020966
H        1.56103210       2.42949333       0.94749658      -0.00110000       0.00048038      -0.00078166
