20
Properties=species:S:1:pos:R:3:forces:R:3 charge=0 spin=1 energy=-85500.8515625 stress="-7.147205050017646e-10 -5.921109713646899e-10 7.690781900215882e-10 -5.921109713646899e-10 -2.4281718302709976e-10 3.361155243020164e-10 7.690781900215882e-10 3.361155243020164e-10 -9.646501375470962e-10" free_energy=-85500.8515625 pbc="F F F"
C        0.78213876       0.59644712       1.93369802       0.00013279       0.00009620       0.00042953
N        1.46508918       0.53251855       0.64642747       0.00024712      -0.00003786      -0.00056374
Br       1.57797516      -1.25796989       0.07462322      -0.00030628       0.00034285       0.00011897
C        0.96680280       1.37354743      -0.41070120       0.00021082      -0.00025600      -0.00004593
O       -0.23852858       0.95001346      -1.04089274       0.00050074       0.00046317       0.00043270
C       -1.43140119       1.32298114      -0.47920664      -0.00011957      -0.00044137       0.00006127
O       -1.47544983       1.99971310       0.53304042      -0.00002953      -0.00003690      -0.00050497
C       -2.54409707       0.67733570      -1.13363606      -0.00083703       0.00132281      -0.00016287
N       -3.27525975      -0.53158153       0.94723733      -0.00132608      -0.00014070       0.00024028
O       -2.78944790      -0.08036480       1.82959002       0.00043565       0.00009012       0.00045937
O       -2.12747902      -1.68555852      -0.04196553       0.00037462      -0.00024533       0.00087368
H        1.38338265       0.06858939       2.67170107      -0.00033870       0.00003793      -0.00006527
H        0.70318854       1.64577834       2.21502916      -0.00006899      -0.00028866      -0.00001068
H       -0.22612782       0.17437836       1.91854926       0.00026034       0.00003860       0.00017639
H        0.83975138       2.37090423       0.01248015      -0.00022968       0.00015110       0.00031936
H        1.69841391       1.38409119      -1.21451575       0.00039053       0.00008343      -0.00048846
H       -3.48603272       1.19182599      -0.98110478       0.00043449      -0.00017836       0.00030044
H       -2.33401957      -0.67316024      -0.66368311       0.00096607      -0.00092381      -0.00094467
H       -2.36406394       0.41826606      -2.17537628      -0.00003518      -0.00017875      -0.00019227
H       -1.19463498      -1.61470509       0.22560596      -0.00066274       0.00010176      -0.00043305
