13
Properties=species:S:1:pos:R:3:forces:R:3 charge=0 spin=1 energy=-79511.171875 stress="-2.371146834434512e-09 -1.0523154569952453e-10 4.1085448931887925e-10 -1.0523154569952453e-10 1.2449208330878037e-09 -4.696549815719209e-10 4.1085448931887925e-10 -4.696549815719209e-10 -2.371828733416237e-09" free_energy=-79511.171875 pbc="F F F"
F        1.76467894      -1.96344030      -0.49945991       0.00049408       0.00069185       0.00026917
C        1.64294458      -0.85758740       0.27173069       0.00137481      -0.00029695      -0.00110340
C        1.94763743       0.34509591      -0.42025488      -0.00043060      -0.00089395       0.00020695
C        1.83649579       1.59579466       0.18388247       0.00078766       0.00056672      -0.00042477
C        0.04324796       2.08895436       0.25095022       0.00118834       0.00109303       0.00084853
Br      -0.91131751       0.01896155      -1.44916939       0.00011873       0.00034249       0.00012654
N       -0.91114265       1.56416429      -0.26443837      -0.00179645      -0.00112259      -0.00068545
C        1.20864780      -1.00538876       1.52929902      -0.00076050      -0.00030907       0.00096029
H        2.17802282       0.26304663      -1.47286293      -0.00046065      -0.00027540      -0.00074297
H        1.98985691       1.66849556       1.25620018      -0.00064370       0.00064471       0.00049750
H        2.21905556       2.45052272      -0.36301753       0.00026458      -0.00034482       0.00011034
H        1.08626472      -0.15001465       2.17615884       0.00054221      -0.00112534      -0.00003114
H        0.97471765      -1.98549457       1.91605159      -0.00067829       0.00102982      -0.00003162
