18
Properties=species:S:1:pos:R:3:forces:R:3 charge=0 spin=1 energy=-26942.109375 stress="-2.209342986336793e-10 -1.863515869393595e-10 4.844323275854379e-10 -1.863515869393595e-10 -4.999388680815287e-10 -1.968367469018517e-09 4.844323275854379e-10 -1.968367469018517e-09 -2.153092704126891e-10" free_energy=-26942.109375 pbc="F F F"
N        3.31310769       0.68188099      -0.31644299      -0.00006573      -0.00022594       0.00012726
C        2.23681947       1.07813769      -0.35075479       0.00074053      -0.00020358      -0.00069198
C        0.83178683       1.49597010      -0.36494514      -0.00004035       0.00002791       0.00046249
C       -0.02016440       0.29112054      -0.71214427      -0.00033323      -0.00034297       0.00011414
O       -0.15700991      -0.17665070      -1.79632437       0.00007731      -0.00043364       0.00104004
N       -0.39717381      -0.56429294       0.50229006      -0.00003880       0.00003201      -0.00007236
C        0.78048946      -1.07734765       1.24426173      -0.00052165      -0.00034398      -0.00173992
O        0.89361855      -0.84843203       2.39875026       0.00040790       0.00103486       0.00209200
C       -1.30812346      -1.70135978       0.07928992       0.00001787      -0.00032720      -0.00004753
O       -0.59967192      -2.66102955      -0.61342823       0.00000733      -0.00034973      -0.00020111
Cl      -2.11772499       1.56318873       0.16894931       0.00019255       0.00045784       0.00019816
H        0.65956650       2.24386025      -1.13551441      -0.00014871       0.00022885       0.00031215
H        0.54375115       1.91835815       0.59410023       0.00001766       0.00034365       0.00001281
H        1.45346529      -1.67234721       0.61753723      -0.00022075       0.00056989      -0.00107531
H       -1.68894118      -2.13783823       0.99977243      -0.00017709       0.00059394       0.00001450
H       -2.10883692      -1.21671788      -0.47794134       0.00035691      -0.00012495      -0.00041019
H       -0.48209042      -2.34741413      -1.51987273       0.00026326      -0.00031196      -0.00013813
H       -0.99290794       0.11795367       1.04324711      -0.00053534      -0.00062492       0.00000259
