22
Properties=species:S:1:pos:R:3:forces:R:3 charge=0 spin=1 energy=-14055.8359375 stress="-2.837434065483535e-09 -1.5516914142477134e-10 1.5653761620271212e-10 -1.5516914142477134e-10 -4.0811606871749007e-10 -4.1012940266149656e-10 1.5653761620271212e-10 -4.1012940266149656e-10 -4.4687747946525747e-10" free_energy=-14055.8359375 pbc="F F F"
O       -1.58620510      -1.97710438      -0.20355736       0.00083011       0.00013638      -0.00100505
C       -1.06311474      -1.08877258       0.64733240      -0.00002857      -0.00031266       0.00003047
N       -2.13128721       0.03705617       0.29502614       0.00006875      -0.00037217      -0.00018856
O       -1.83971763       1.40097358       0.17513409      -0.00004108      -0.00030603      -0.00046599
C       -1.41697357       1.70302874      -1.15408349       0.00007228       0.00024927      -0.00039675
C        0.32873426      -0.56799641       0.37836018       0.00034201      -0.00001168       0.00032629
C        0.92500993       0.34673049       1.23873598      -0.00061123      -0.00003657       0.00028400
C        2.19459861       0.83301815       0.96876648      -0.00021483       0.00007087      -0.00068945
C        2.87600659       0.39899165      -0.16108483       0.00093009       0.00023235      -0.00001444
C        2.28747060      -0.52518160      -1.01353256       0.00021555      -0.00001536      -0.00020190
C        1.01508305      -1.00992349      -0.74384423       0.00013056       0.00010580      -0.00025353
H       -2.27751766      -0.78869342      -0.54457560      -0.00087924      -0.00046995       0.00072111
H       -1.18479177      -1.31034773       1.72021769      -0.00056945       0.00068656      -0.00016257
H       -2.89718115      -0.01089127       0.96421117       0.00047088      -0.00087084       0.00074065
H       -0.50005126       1.17196051      -1.40829493       0.00043127       0.00119491      -0.00132543
H       -2.20647582       1.46057085      -1.86856412      -0.00072125       0.00024442       0.00045071
H       -1.23388959       2.77425668      -1.15466781      -0.00036264      -0.00028208       0.00069946
H        0.38921994       0.68495690       2.11860746      -0.00012596       0.00105367       0.00032879
H        2.65521248       1.54684975       1.63971889      -0.00017855      -0.00044638       0.00036715
H        3.86854821       0.77595066      -0.37198110       0.00114086       0.00004719       0.00024189
H        2.82319911      -0.87216807      -1.88792778       0.00060036      -0.00105380       0.00022341
H        0.53139272      -1.73650517      -1.38421667      -0.00150006       0.00015569       0.00028960
