13
Properties=species:S:1:pos:R:3:forces:R:3 charge=0 spin=1 energy=-37411.890625 stress="9.578468573856469e-11 2.398390375191184e-10 -5.5475091187418e-10 2.398390375191184e-10 -4.286116184193389e-10 -3.3379143893341734e-10 -5.5475091187418e-10 -3.3379143893341734e-10 -3.641918155938839e-10" free_energy=-37411.890625 pbc="F F F"
O        1.59906664      -0.72314316      -1.28612388      -0.00035292       0.00000770       0.00029349
S        0.66840359      -0.77851467      -0.23649215       0.00036512      -0.00058603       0.00008440
O        0.51913036      -1.77413445       0.76331546       0.00028631       0.00008243      -0.00045711
O        2.11637343       0.16896968       1.13463859       0.00055957       0.00072318      -0.00088298
O       -0.72647814      -0.44759778      -0.81081259      -0.00032377      -0.00029273      -0.00000455
C       -1.91661566      -0.46463862       0.08648428       0.00024080       0.00005090      -0.00007674
O       -1.71827292       0.27565518       1.16824577       0.00030820      -0.00009742       0.00012134
F       -2.86604037       0.00622898      -0.74046533       0.00015958       0.00008322      -0.00025725
Cl       0.36025329       2.08167073       0.11949885      -0.00024728      -0.00000231      -0.00011587
H        1.84844830      -0.06353030       2.03506385      -0.00019113      -0.00044434       0.00075254
H       -2.12782902      -1.50020675       0.34154917      -0.00051478       0.00015011       0.00009387
H       -1.24525125       1.11482988       0.91340030       0.00002405       0.00034666       0.00006539
H        1.82295177       1.10648126       0.98498768      -0.00031368      -0.00002137       0.00038346
