19
Properties=species:S:1:pos:R:3:forces:R:3 charge=0 spin=1 energy=-80527.2265625 stress="2.0897313046663868e-10 -1.6651753587115792e-10 -7.796867318443645e-11 -1.6651753587115792e-10 2.5210394882790865e-10 2.1289098262045059e-10 -7.796867318443645e-11 2.1289098262045059e-10 9.613831258858951e-11" free_energy=-80527.2265625 pbc="F F F"
C       -3.43525164      -1.11071917      -0.67638744       0.00095719       0.00043820       0.00095080
C       -2.13228895      -1.15209653       0.08740557       0.00130141      -0.00139558       0.00082755
O       -1.57652461      -2.20642655       0.30087980      -0.00129557       0.00076753       0.00045504
C       -1.54493009       0.14271529       0.56934485       0.00008692       0.00012653       0.00065124
C       -2.02024518       1.38762125       0.08239957      -0.00034849       0.00000526      -0.00062025
C       -1.33411827       2.54333988       0.28487013       0.00000578      -0.00066243      -0.00041808
C        0.65981373       1.92159019      -0.72616905       0.00037360      -0.00010228      -0.00010505
C        1.05952584       0.85789482      -0.26457094       0.00019574       0.00044572       0.00062954
Br       2.34943456      -0.44168600      -0.21481853      -0.00035679      -0.00004983      -0.00131107
C       -0.37898278       0.07674537       1.27885379       0.00019763       0.00042030       0.00099958
H       -3.78184258      -2.12849520      -0.83079298       0.00047579       0.00154158       0.00006730
H       -4.19011111      -0.53690131      -0.13678971      -0.00021201      -0.00081664      -0.00117956
H       -3.28864712      -0.63212585      -1.64693080      -0.00088291      -0.00121516       0.00001284
H       -2.83242984       1.39191683      -0.63384934      -0.00026825       0.00109607      -0.00096914
H       -0.66070346       2.67265796       1.11955979      -0.00113749       0.00071058       0.00030427
H       -1.64049043       3.45467095      -0.21309974       0.00024208      -0.00077632      -0.00021181
H        0.64101598       2.79783986      -1.33107997       0.00009988       0.00046416       0.00091939
H       -0.01310386       0.91335002       1.85492468       0.00158820       0.00009792       0.00019839
H        0.02042981      -0.89825179       1.52181030      -0.00102308      -0.00109524      -0.00120114
