24
Properties=species:S:1:pos:R:3:forces:R:3 charge=0 spin=1 energy=-13624.451171875 stress="2.6514609952066337e-10 8.73397049128144e-11 8.042049665091255e-11 8.73397049128144e-11 -4.072480686012625e-10 1.0952994761170842e-10 8.042049665091255e-11 1.0952994761170842e-10 -4.878372150685095e-10" free_energy=-13624.451171875 pbc="F F F"
C        1.16851604      -0.18245682      -0.05633922       0.00025654       0.00077868      -0.00148070
C        2.42182328      -0.22058423      -0.88811951       0.00013936       0.00039006       0.00010115
O        3.57820035       0.27866177      -0.22289994      -0.00067934       0.00013787      -0.00020590
C        3.98066699      -0.53628949       0.85089826       0.00034237      -0.00003684      -0.00008357
C        0.62298873       1.06293328       0.29298222      -0.00027215      -0.00000343       0.00028718
O       -0.78626233       0.87096731      -1.04008158       0.00005984       0.00041786       0.00017804
C       -2.15322782       0.82895342      -0.81773856      -0.00020510       0.00056633      -0.00004944
C       -2.58891406      -0.03759548       0.35416991      -0.00020564      -0.00015098      -0.00059152
C       -4.07638225      -0.22425307       0.51653284       0.00041670      -0.00038809       0.00121296
O       -1.78783997      -0.54727404       1.10033054      -0.00017929       0.00009573       0.00040534
H        0.04840424      -0.09704857      -0.83170181       0.00054171      -0.00070250      -0.00010784
H        0.97478637      -0.99635964       0.63424418      -0.00003959      -0.00076717       0.00142131
H        2.61358356      -1.24495274      -1.23054047       0.00008252      -0.00022722      -0.00000170
H        2.30978825       0.41256299      -1.76951112      -0.00025748       0.00005236      -0.00040728
H        4.18711548      -1.56044662       0.51529038      -0.00000094      -0.00044975      -0.00007294
H        4.89478778      -0.10935121       1.25901292      -0.00016552      -0.00003111       0.00033189
H        3.22629864      -0.57500405       1.64392963      -0.00001153       0.00010039       0.00016047
H       -0.01414029       1.16344449       1.15997566      -0.00023154      -0.00022117      -0.00008187
H        1.02472303       1.97611559      -0.12669157       0.00048143       0.00043680      -0.00032448
H       -2.68156134       0.46484547      -1.71204473       0.00036774      -0.00031742       0.00000503
H       -2.54881283       1.83915842      -0.63123783      -0.00033757       0.00001181       0.00054783
H       -4.29074274      -0.65089879       1.49292859       0.00015582       0.00045052      -0.00006212
H       -4.43635727      -0.90613915      -0.25717472      -0.00037719       0.00019461      -0.00082061
H       -4.60893184       0.71950116       0.39012593       0.00011888      -0.00033744      -0.00036097
