28
Properties=species:S:1:pos:R:3:forces:R:3 charge=0 spin=1 energy=-22739.189453125 stress="2.8072340008122865e-09 1.0790567328555767e-09 -1.8582382854681612e-10 1.0790567328555767e-09 -2.426574718938923e-09 -3.567532380621685e-10 -1.8582382854681612e-10 -3.567532380621685e-10 -3.117251179407532e-10" free_energy=-22739.189453125 pbc="F F F"
C       -4.77303603      -1.37359891      -0.23472444       0.00054723       0.00003050      -0.00108173
C       -3.35630310      -1.19086864      -0.72754169       0.00087869      -0.00046824       0.00025679
O       -2.56530526      -1.02712159       0.45051315       0.00031364       0.00142246       0.00043407
O       -1.21159207      -0.88385314       0.04417500       0.00036126       0.00086111       0.00043723
C       -0.89352280       0.44369464      -0.11862976       0.00032574       0.00094280       0.00024134
O       -1.71694944       1.33846843      -0.07720122       0.00030488       0.00013542      -0.00012402
N        0.42104643       0.64614772      -0.34430417       0.00035661       0.00051117       0.00042689
N        0.81074418       2.47078513       0.97772409      -0.00104314       0.00083072       0.00075614
O       -0.07519610       2.80467251       1.54601360      -0.00043169       0.00052091      -0.00150180
C        1.43161991      -0.32427335      -0.20003504      -0.00047994      -0.00138773      -0.00058838
C        2.44608075      -0.35249989      -1.15321873      -0.00014555       0.00023423      -0.00074261
C        3.52124410      -1.21714285      -1.01071197      -0.00016347      -0.00029452      -0.00001024
C        3.59368728      -2.06796354       0.08154158      -0.00091800      -0.00093374      -0.00054427
C        2.58378570      -2.04172594       1.03489947       0.00023661       0.00043887       0.00028300
C        1.51358896      -1.17347673       0.90369581      -0.00004041       0.00012801       0.00010529
O        0.69740734       3.01225229      -0.84474968      -0.00095665       0.00028527       0.00021255
H       -5.10111069      -0.49298864       0.31570809       0.00053355      -0.00199016       0.00125496
H       -4.84474510      -2.24412042       0.41651166       0.00028162       0.00060191      -0.00125392
H       -5.43887339      -1.52038151      -1.08485513      -0.00107025       0.00031825      -0.00016911
H       -3.26092970      -0.29913105      -1.34980264       0.00037901      -0.00154629      -0.00072429
H       -3.00211661      -2.06593193      -1.27784797       0.00103205      -0.00025596       0.00049235
H        2.37857355       0.30860321      -2.00792703       0.00071695       0.00087076      -0.00048754
H        4.30143017      -1.22684021      -1.76079808      -0.00088951      -0.00139586      -0.00037104
H        4.42989861      -2.74579318       0.19168951      -0.00097738      -0.00124052       0.00052615
H        2.63158017      -2.69999672       1.89301422       0.00072214      -0.00091968      -0.00042017
H        0.73333230      -1.15455574       1.65244582       0.00064784       0.00053541       0.00138843
H        0.62261152       1.85490436      -0.86159398      -0.00042572       0.00062937       0.00082314
H       -0.22736067       3.28133571      -0.95413047      -0.00009587       0.00113532       0.00038135
