22
Properties=species:S:1:pos:R:3:forces:R:3 charge=0 spin=1 energy=-12013.6025390625 stress="9.613444484912748e-10 -7.683076397313471e-11 7.359679532470409e-10 -7.683076397313471e-11 1.7660195528179656e-09 -2.3569840523762764e-10 7.359679532470409e-10 -2.3569840523762764e-10 -8.895056358149134e-10" free_energy=-12013.6025390625 pbc="F F F"
C        0.19158551       1.56995636      -0.55605854       0.00029719      -0.00077242      -0.00120077
C        0.29305873       0.17431376      -0.39048611      -0.00037819      -0.00031573       0.00042681
O        1.05605508      -0.35152681       0.62962885      -0.00001292       0.00001150       0.00058782
C        2.23731602      -1.00436340       0.18061391      -0.00027585       0.00064570      -0.00076187
C        3.30097279      -0.03365563      -0.29647285       0.00045386       0.00094354       0.00161190
C       -1.29936986       0.62150790       0.36027263      -0.00077006       0.00013232       0.00028968
O       -1.30936866       0.47892586       1.57992143      -0.00165363      -0.00021607       0.00016642
C       -2.31333356       0.05605949      -0.64158068      -0.00063017      -0.00060767      -0.00045532
N       -2.47712200      -1.37531790      -0.53161206      -0.00033419      -0.00039929      -0.00001031
H       -1.25544520       1.81039764      -0.03456239       0.00083587       0.00076589       0.00035720
H       -0.05119415       1.99754403      -1.52037298      -0.00055663      -0.00014734      -0.00122769
H        0.64978165       2.21930056       0.17970006       0.00034940      -0.00203751       0.00012876
H        0.18114825      -0.46278930      -1.26494813      -0.00065111      -0.00019541       0.00100806
H        2.59383886      -1.57302259       1.03909718      -0.00046135      -0.00057235      -0.00113159
H        1.98222079      -1.71886447      -0.61194762       0.00068976      -0.00036384       0.00005415
H        4.19832100      -0.57588844      -0.59816201      -0.00091054       0.00084812      -0.00079593
H        2.95069853       0.54332675      -1.15348039       0.00044091       0.00046058      -0.00050770
H        3.57018746       0.65913671       0.50148264       0.00044155      -0.00018666       0.00106721
H       -3.27071617       0.53501840      -0.42651387       0.00109123       0.00077832       0.00097701
H       -2.02191390       0.33406967      -1.65631135       0.00060487      -0.00076640      -0.00023067
H       -2.73326627      -1.59906120       0.42284517       0.00101228       0.00184706       0.00111008
H       -1.59319491      -1.84116741      -0.70257289       0.00041777       0.00014776      -0.00146353
