16
Properties=species:S:1:pos:R:3:forces:R:3 charge=0 spin=1 energy=-11453.3720703125 stress="-2.0024444324917567e-09 -7.259494116951259e-10 3.09211850568758e-10 -7.259494116951259e-10 -1.6640592237493479e-09 -2.0046808657525617e-09 3.09211850568758e-10 -2.0046808657525617e-09 1.191860055094196e-09" free_energy=-11453.3720703125 pbc="F F F"
O       -1.34905287       1.88940103      -0.24581471      -0.00024995       0.00145689       0.00064576
C       -0.56893700       0.91604032      -0.04514077      -0.00035292       0.00027073       0.00027242
C       -1.28818044      -0.08468438       0.72572564      -0.00037393       0.00037336      -0.00091428
C       -1.34888902      -1.45563894       0.27649702      -0.00016022      -0.00004703       0.00061333
O       -0.87515145      -1.86664795      -0.76861462      -0.00046825      -0.00042129      -0.00098956
C        0.81149754       0.92605151      -0.62081572      -0.00015592      -0.00108057       0.00063667
O        1.79417789       0.57348676       0.30703161       0.00098241       0.00131053       0.00040430
C        2.03739780      -0.82255380       0.42930033      -0.00011402       0.00027341       0.00065756
H       -2.13618855       1.09875621       0.29208164      -0.00011835      -0.00047332      -0.00028363
H       -1.33055585       0.11635924       1.79367213      -0.00015503       0.00063823      -0.00075090
H       -1.92328635      -2.13701836       0.93208159       0.00082088      -0.00060422       0.00071401
H        1.02204046       1.93434249      -0.98054874       0.00005028      -0.00141676       0.00032946
H        0.78074879       0.24057557      -1.47930018       0.00128857       0.00025021       0.00028694
H        2.95380419      -0.92393061       1.00486434       0.00140950       0.00144213      -0.00084801
H        1.22437781      -1.32977295       0.95169980      -0.00148183      -0.00136811      -0.00010644
H        2.16555707      -1.28354613      -0.55342935      -0.00092100      -0.00060391      -0.00066739
