15
Properties=species:S:1:pos:R:3:forces:R:3 charge=0 spin=1 energy=-11888.669921875 stress="-5.081443599230795e-10 -1.139324412591236e-09 1.1244999376103237e-09 -1.139324412591236e-09 1.455045750553552e-09 -1.5603064396074728e-09 1.1244999376103237e-09 -1.5603064396074728e-09 -2.8008919836230994e-11" free_energy=-11888.669921875 pbc="F F F"
C       -0.76362750       0.81327749       0.22951860       0.00022694       0.00025833      -0.00006264
C        0.65113903       0.49448692       0.11123286      -0.00005581      -0.00043848      -0.00018612
O        1.20334181       1.55935795      -0.29199254       0.00041478      -0.00062165      -0.00042841
C        1.42431651      -0.72826351       0.40842161      -0.00075936      -0.00039333       0.00028384
C        2.88394048      -0.66251612      -0.01298612      -0.00047958       0.00089931       0.00054044
N       -1.74033809      -0.17042150      -0.14179333       0.00073290       0.00032103      -0.00009406
O       -1.36246133      -1.10349756      -0.84374798       0.00040932      -0.00062197      -0.00001001
O       -2.88950899      -0.00163988       0.21467002       0.00000903       0.00056520       0.00071315
H       -1.03047870       1.32036679       1.15065021      -0.00138035      -0.00054106      -0.00028676
H        0.02132246       1.90526609      -0.42339367       0.00064117      -0.00053377       0.00087434
H        1.31730937      -0.90116717       1.48578161       0.00007069       0.00111529       0.00040466
H        0.88647688      -1.55184661      -0.06693320      -0.00132434      -0.00028656      -0.00122657
H        3.40660076       0.15245261       0.48505814       0.00110190       0.00070456       0.00059256
H        3.38224137      -1.59684894       0.23820340      -0.00016040       0.00067797      -0.00135133
H        2.96834593      -0.50679657      -1.08782963       0.00055315      -0.00110511       0.00023699
