17
Properties=species:S:1:pos:R:3:forces:R:3 charge=0 spin=1 energy=-77442.78125 stress="-4.721606439161974e-10 1.3265775630766363e-11 1.065572297065387e-09 1.3265775630766363e-11 2.8781905678232356e-11 1.121346418497815e-10 1.065572297065387e-09 1.121346418497815e-10 -4.4867837223350193e-10" free_energy=-77442.78125 pbc="F F F"
C        3.48513046      -0.21446926      -1.04263437      -0.00111945      -0.00073121       0.00014751
C        2.46848897      -0.20314838       0.06845302       0.00012283      -0.00063041       0.00013304
C        1.53635410      -1.26623923       0.14108124      -0.00021395       0.00007369       0.00029232
C        0.42499418      -1.21655828       0.92748956       0.00006012       0.00058977       0.00053289
C       -0.56338728       0.65452981       0.11320352       0.00003517       0.00006723      -0.00035170
Br      -2.29271375       0.08353164      -0.12547729       0.00029111      -0.00017965       0.00006063
C        0.24825781       1.57477748       0.05457627       0.00007045      -0.00024617       0.00019674
C        2.27406969       0.91082674       0.83351120      -0.00007746      -0.00020619      -0.00045407
H        4.21621743      -1.01131438      -0.89091812       0.00038402       0.00030292      -0.00029287
H        4.02577043       0.72912964      -1.09580101       0.00146864       0.00114161      -0.00008444
H        3.00706860      -0.39317898      -2.00784907      -0.00003126      -0.00035714      -0.00067367
H        1.59310381      -2.03337695      -0.62457785       0.00061638      -0.00010887      -0.00060464
H        0.39246154      -0.63797488       1.83942246      -0.00001648       0.00009082       0.00070211
H       -0.33637290      -1.97940103       0.83601211      -0.00036047       0.00032699       0.00072838
H        0.59765763       2.56154929      -0.14759148       0.00008808       0.00048968       0.00042208
H        2.90816725       1.77889222       0.69532934       0.00022344       0.00007433       0.00078377
H        1.73927202       0.87019456       1.77068046      -0.00154093      -0.00069769      -0.00153790
