24
Properties=species:S:1:pos:R:3:forces:R:3 charge=0 spin=1 energy=-14994.126953125 stress="4.412513465723578e-09 -3.3727636239433423e-09 -1.2267559190703992e-09 -3.3727636239433423e-09 7.548813130142662e-09 -3.091719102954471e-10 -1.2267559190703992e-09 -3.091719102954471e-10 1.72656999808396e-09" free_energy=-14994.126953125 pbc="F F F"
C       -1.02920322       1.96230054       0.62575285       0.00093924      -0.00011995      -0.00047679
C       -0.35921274       1.05428393      -0.34572037       0.00132789      -0.00108195       0.00020885
O        0.02102607       1.20675361      -1.44674270       0.00061728      -0.00086359       0.00066008
N       -1.19682450      -0.63281015      -0.11527432      -0.00010633       0.00020728      -0.00047472
C       -1.08597443      -1.40640935      -1.35885310      -0.00016853       0.00056257      -0.00114553
C       -2.40264480      -0.61494831       0.46446583      -0.00028390       0.00065081       0.00124092
N       -3.43103901      -0.55109752       0.98515920       0.00068304      -0.00123948      -0.00067057
O        0.81148397       0.21110592       0.74632714      -0.00092614       0.00016391      -0.00007209
N        1.85621330      -0.36562050      -0.04979561      -0.00091350      -0.00029904       0.00026250
C        2.87435149       0.66204984      -0.18764066      -0.00060494      -0.00068822      -0.00003111
C        2.35336429      -1.49565334       0.71966386      -0.00039425       0.00055991       0.00102860
H       -1.19973762       1.48168041       1.58374182       0.00001649      -0.00175292      -0.00173866
H       -1.98010718       2.28182759       0.20172154       0.00059097      -0.00148854      -0.00043485
H       -0.38060048       2.82659162       0.75995741       0.00030028      -0.00025851       0.00172017
H       -1.75254431      -1.00809252      -2.12333857      -0.00043418       0.00057920       0.00121195
H       -0.05801046      -1.31640688      -1.70372898      -0.00125646       0.00082375       0.00099170
H       -1.32203018      -2.45353321      -1.17398794       0.00123408       0.00008925      -0.00158402
H       -0.13944236      -0.52769010       0.57924149      -0.00009315       0.00190914       0.00016514
H        3.69456241       0.24861390      -0.77360688      -0.00110908      -0.00147927       0.00062085
H        3.25288848       0.99354506       0.78752420       0.00055220       0.00009789      -0.00129485
H        2.45592678       1.50862891      -0.72562911       0.00066869      -0.00028433      -0.00009522
H        3.17800753      -1.94696662       0.16884872      -0.00132995       0.00140026      -0.00013073
H        1.56381700      -2.23777469       0.83030930      -0.00059465       0.00080445       0.00053874
H        2.70342998      -1.19240814       1.71396489       0.00128497       0.00170715      -0.00049973
