20
Properties=species:S:1:pos:R:3:forces:R:3 charge=0 spin=1 energy=-80533.828125 stress="-1.7118545470040658e-09 2.140784438608989e-09 4.3867490195914627e-10 2.140784438608989e-09 6.973813887478642e-11 -1.2417453731927708e-09 4.3867490195914627e-10 -1.2417453731927708e-09 8.013253394167918e-10" free_energy=-80533.828125 pbc="F F F"
C        0.92395257       2.28213343      -0.79878736      -0.00039518      -0.00009435       0.00178647
C        0.92431002       0.87631494      -0.87820557       0.00011399       0.00037658       0.00046502
O        2.08496240       0.25130490      -0.53915005      -0.00038072       0.00015578       0.00019432
C        1.90335471      -1.11610852      -0.14294783       0.00081909       0.00000283      -0.00038701
C        3.25522606      -1.65594430       0.24911354       0.00041607      -0.00002724      -0.00059298
C       -0.00299591       1.26067983       0.59482978      -0.00024509       0.00000963       0.00003386
O        0.56237540       0.87388283       1.62632403       0.00005960       0.00120300      -0.00113380
C       -1.45983670       1.04242307       0.21732459      -0.00044769       0.00075203       0.00066864
Br      -1.88224617      -0.83004665      -0.07713625       0.00073871       0.00082088       0.00146016
H       -0.01343084       2.49783439       0.45854573      -0.00073460      -0.00025091       0.00098923
H        0.28080939       2.87926492      -1.43129511      -0.00007029      -0.00112760       0.00014377
H        1.77641802       2.77085811      -0.34267575      -0.00014974       0.00042000      -0.00058666
H        0.29701723       0.37476366      -1.61051849      -0.00080708      -0.00016250       0.00083140
H        1.20681920      -1.14748744       0.69447135      -0.00023401      -0.00001651      -0.00126074
H        1.47508521      -1.67145866      -0.98535568       0.00088859      -0.00048262      -0.00126690
H        3.95866432      -1.58852062      -0.58095149       0.00090478      -0.00000615      -0.00022171
H        3.65159324      -1.08856377       1.09062268       0.00099942      -0.00174089       0.00049999
H        3.16897367      -2.70129937       0.54688720      -0.00126148       0.00037108       0.00067715
H       -2.08633517       1.36098984       1.04474975      -0.00100704       0.00106190      -0.00053582
H       -1.72651665       1.57606942      -0.69057507       0.00079305      -0.00126525      -0.00176431
