17
Properties=species:S:1:pos:R:3:forces:R:3 charge=0 spin=1 energy=-50798.0859375 stress="1.0385889925856873e-09 4.21635587555258e-10 -5.038383599220708e-10 4.21635587555258e-10 -1.6818456627376577e-09 3.93690968714111e-10 -5.038383599220708e-10 3.93690968714111e-10 -9.888987406725391e-10" free_energy=-50798.0859375 pbc="F F F"
O        2.97641160       0.37536717       1.57584805       0.00113912       0.00067776       0.00123149
C        2.42589621      -0.03069435       0.60109414      -0.00116134      -0.00061452      -0.00148284
O        2.54369366       0.51715774      -0.62706274       0.00090016      -0.00000688       0.00009927
C        1.52366553      -1.24986056       0.57934932      -0.00045364      -0.00012504      -0.00020522
C        0.71340961      -1.40239367      -0.67144610      -0.00003558       0.00044352       0.00009817
O        0.72303333      -2.30975608      -1.43115865       0.00007147      -0.00050447      -0.00033851
N       -0.15788047      -0.22865301      -1.05627467      -0.00036448      -0.00000912      -0.00058201
S       -1.23300785       0.60478245       0.23720693      -0.00000370      -0.00016916       0.00128734
O       -0.52834371       0.83660154       1.44859829      -0.00002289      -0.00032407      -0.00034440
O       -2.48401221       1.04440288      -0.26451593       0.00058591       0.00082064      -0.00095034
Cl      -1.86863296      -1.42586104       0.68357175       0.00016177      -0.00047579       0.00019526
Cl      -0.15128271       2.48006430      -0.80077019      -0.00039537       0.00005551      -0.00005984
H        3.02795566       1.35328898      -0.53864305      -0.00075430       0.00021948       0.00002837
H        0.86988077      -1.18851326       1.44867520       0.00001782       0.00010279       0.00022911
H        2.13637116      -2.14488313       0.67633724       0.00010991      -0.00033811       0.00031233
H       -0.80045077      -0.55141907      -1.78458915       0.00037891       0.00030686       0.00064969
H        0.40253314       0.57721911      -1.40307044      -0.00017376      -0.00005940      -0.00016801
