22
Properties=species:S:1:pos:R:3:forces:R:3 charge=0 spin=1 energy=-11911.0576171875 stress="-1.1772959274125583e-09 -2.8375118921175613e-10 -1.377370856259219e-10 -2.8375118921175613e-10 1.3248856456371527e-09 7.599793017121215e-10 -1.377370856259219e-10 7.599793017121215e-10 -9.609695261758588e-10" free_energy=-11911.0576171875 pbc="F F F"
N        1.37796509      -0.72656449       0.50226396      -0.00210482      -0.00010379      -0.00067411
C       -0.06294644      -0.62062252       0.50443879       0.00005680      -0.00071168      -0.00032073
C       -0.65189606      -0.83783228      -0.89135921      -0.00041556       0.00023042       0.00026381
N       -2.09291127      -0.69285317      -1.00184274      -0.00021720      -0.00025594       0.00030959
N       -2.53994490       0.59101888      -0.57576026       0.00073755      -0.00120158       0.00010550
C       -3.23085585       0.57009825       0.70436130      -0.00066952       0.00140512      -0.00086445
C        2.24156073       0.20851991       0.22299374      -0.00031218       0.00071877      -0.00041421
C        2.00486957       1.63625532      -0.11577124       0.00105429       0.00017235       0.00069708
O        3.41638011      -0.31222292       0.29807314       0.00150514      -0.00117631       0.00000322
H        2.57852722      -1.28884707       0.57740573      -0.00109193       0.00025010       0.00038585
H       -0.46395559      -1.36315621       1.19895101       0.00077447       0.00085836       0.00063501
H       -0.36465044       0.36425195       0.87081153       0.00116307      -0.00101783      -0.00087537
H       -0.39096036      -1.83778335      -1.24512263       0.00084060       0.00116026      -0.00043112
H       -0.19462061      -0.12324258      -1.57969961       0.00042956      -0.00045225       0.00044651
H       -2.57745051      -1.42338480      -0.48844837      -0.00054222       0.00055635       0.00057484
H       -3.17826383       0.92201206      -1.28716839      -0.00065666       0.00057441      -0.00209135
H       -2.53382689       0.34041768       1.51023177       0.00016247       0.00028743       0.00211109
H       -3.65167977       1.55738935       0.89390085      -0.00071713      -0.00193329      -0.00029129
H       -4.04920547      -0.16436696       0.74079647       0.00033454      -0.00005519       0.00028661
H        0.95166273       1.83923414      -0.30123739      -0.00003621       0.00073747       0.00131081
H        2.35132450       2.25584525       0.71195661       0.00041496      -0.00046055      -0.00066900
H        2.59513806       1.89870355      -0.99179506      -0.00071004       0.00041730      -0.00049803
