25
Properties=species:S:1:pos:R:3:forces:R:3 charge=0 spin=1 energy=-33509.56640625 stress="-1.0729795524300201e-10 -9.86727019536282e-11 -4.086540550396478e-10 -9.86727019536282e-11 1.3421556921411337e-10 2.106248682409717e-11 -4.086540550396478e-10 2.106248682409717e-11 2.749848404537403e-10" free_energy=-33509.56640625 pbc="F F F"
N       -4.81064171      -0.59237112      -0.06323416       0.00195171      -0.00065832      -0.00062497
C       -3.66545587      -0.67197652      -0.15071143      -0.00138196      -0.00035946       0.00109598
O       -2.37780577      -0.74559254      -0.15673352      -0.00049764      -0.00021020      -0.00008006
C       -1.68737944       0.18542761      -1.08196554      -0.00015223      -0.00046992      -0.00045717
O       -2.34161685       0.74030082      -1.90886543       0.00032592      -0.00023752       0.00020543
C       -0.33913713       0.32100522      -0.67100135      -0.00084740       0.00071587       0.00042248
N       -2.68058112       1.67447136       1.38456664       0.00015450       0.00058371      -0.00052404
O       -3.17870295       2.41516126       0.73780333      -0.00061464      -0.00027940       0.00035924
S        0.31976850      -0.85898354       0.46512365      -0.00041288       0.00029373       0.00029159
O        0.18862517      -0.29684759       1.86236111       0.00067173       0.00049865      -0.00080419
C        2.04633801      -0.62634970       0.03198345      -0.00037825       0.00029156      -0.00014852
C        2.51302508      -1.11569800      -1.18110489      -0.00012662       0.00063125      -0.00048449
C        3.85306965      -0.96249477      -1.49616732      -0.00002035       0.00019914      -0.00013189
C        4.71204045      -0.34126417      -0.59758442      -0.00009657      -0.00069732       0.00115704
C        4.23511857       0.12437965       0.61810521       0.00036083      -0.00016790       0.00037509
C        2.89253670      -0.02001758       0.94228186      -0.00004866      -0.00017361      -0.00011485
O       -0.92348561       1.96515211       1.33244086       0.00000119      -0.00083745      -0.00068794
H        0.33267908       0.78257903      -1.38133133      -0.00008059      -0.00002326       0.00030467
H        1.83847212      -1.61225877      -1.86846807      -0.00011253       0.00036590       0.00007540
H        4.23057607      -1.33613925      -2.43886883      -0.00008735       0.00019359      -0.00044179
H        5.75952147      -0.22874021      -0.84499774       0.00021148      -0.00028317       0.00007781
H        4.90800760       0.59855708       1.32024561       0.00053808      -0.00042704      -0.00005768
H        2.49826860       0.32205932       1.88961790       0.00002696      -0.00036479       0.00004871
H       -0.67759104       1.53608858       0.38016926       0.00023497       0.00063503       0.00012919
H       -0.53786959       1.18688171       1.84843516       0.00038087       0.00078088       0.00001527
