12
Properties=species:S:1:pos:R:3:forces:R:3 charge=0 spin=1 energy=-22555.939453125 stress="-3.648513990928137e-10 3.7037364841729925e-10 1.1337100147557067e-09 3.7037364841729925e-10 -3.936953540950583e-11 3.3939201449229017e-10 1.1337100147557067e-09 3.3939201449229017e-10 2.0051514615371246e-10" free_energy=-22555.939453125 pbc="F F F"
N        1.78077787       1.55748846       0.25302765      -0.00004055       0.00045484       0.00059899
C        1.55492463       0.28622007       0.08523027       0.00015818      -0.00107741      -0.00004737
S        2.01393870      -1.18200845       0.62071793      -0.00001639       0.00039136       0.00003970
N        0.47767420       0.50163076      -1.02245364       0.00012690      -0.00009310      -0.00014129
O       -0.71601071      -0.23035947      -0.89760330       0.00059700       0.00012875      -0.00029594
C       -1.52945335       0.26807082       0.06863082      -0.00020134       0.00065887      -0.00020021
O       -1.33384786       1.23689908       0.72251930      -0.00032033       0.00026599       0.00068543
C       -2.71212475      -0.59427237       0.15125069       0.00159007       0.00040889       0.00001986
N       -3.65296554      -1.24214418       0.23656066      -0.00167838      -0.00084013       0.00026320
H        2.49456015       1.83403355       0.91347351      -0.00071713      -0.00068209      -0.00115800
H        0.70707982       1.65383315      -0.62813403      -0.00029308       0.00007391      -0.00012340
H        0.83086685       0.22104859      -1.93378987       0.00079536       0.00031008       0.00035894
