25
Properties=species:S:1:pos:R:3:forces:R:3 charge=0 spin=1 energy=-15567.8564453125 stress="-4.218419780155358e-10 -1.4974131656853018e-10 -1.3796590259129715e-10 -1.4974131656853018e-10 -7.208051933105253e-10 -8.818119151543513e-11 -1.3796590259129715e-10 -8.818119151543513e-11 3.752723964911553e-10" free_energy=-15567.8564453125 pbc="F F F"
O        0.34650159      -1.44051782      -0.11518290       0.00080901      -0.00087905       0.00033355
C       -0.47089304      -0.36402367      -0.38595275       0.00002354       0.00100219      -0.00129789
C       -0.12146798       0.25891748       0.88426835      -0.00096419       0.00062132       0.00117016
N        1.84355958      -0.27894842       1.72169719       0.00057027      -0.00027931      -0.00105716
N        2.78632359      -0.56969388       0.67748229      -0.00022507       0.00021338       0.00097173
C        3.11593277       0.66329936      -0.03092758       0.00088230      -0.00002801       0.00022918
C        3.93373083       0.33338652      -1.26591807      -0.00098336       0.00010565      -0.00012025
C       -1.94403960      -0.72882575      -0.54731989      -0.00002617      -0.00059716       0.00093688
C       -2.82492625       0.48122517      -0.45715888      -0.00052118      -0.00038302      -0.00025138
O       -2.54284671       1.49312888       0.13787303      -0.00001891       0.00048235       0.00007148
O       -4.00183493       0.33055402      -1.09280353       0.00056005       0.00028400       0.00004896
H        1.62954958      -1.16081321       2.17546185      -0.00007018       0.00002646       0.00018665
H       -0.15818611       0.24221630      -1.25455387      -0.00024674      -0.00009459       0.00053029
H       -0.61957486      -0.11378212       1.76654230      -0.00014962      -0.00024588      -0.00113210
H        0.31383832       1.24374198       0.95130267       0.00054322      -0.00015582       0.00010053
H        2.29831147       0.32408116       2.40587803       0.00017207       0.00009906       0.00028735
H        2.19999021      -1.13119200       0.04869756      -0.00020155      -0.00065732      -0.00069296
H        3.69121955       1.30763167       0.64147633      -0.00009594       0.00031614      -0.00013959
H        2.20914873       1.21544149      -0.31939994      -0.00052853       0.00066878      -0.00026897
H        4.84433464      -0.19725731      -0.98994048       0.00128412      -0.00089191       0.00052841
H        4.20871475       1.24259429      -1.80084960       0.00005060       0.00102182      -0.00017081
H        3.36172471      -0.29963122      -1.94676474      -0.00044693      -0.00056528      -0.00006301
H       -2.21624527      -1.41163492       0.26324082      -0.00075319       0.00043435      -0.00049113
H       -2.10247669      -1.26082208      -1.48478489      -0.00018918       0.00017719       0.00010499
H       -4.49865890       1.14914408      -0.94525331       0.00052556      -0.00067553       0.00018428
