16
Properties=species:S:1:pos:R:3:forces:R:3 charge=0 spin=1 energy=-20480.341796875 stress="-3.086761291015705e-09 -2.580933688989262e-09 -3.4073333043949106e-10 -2.580933688989262e-09 9.072426837564151e-11 -1.5808002684636335e-09 -3.4073333043949106e-10 -1.5808002684636335e-09 -1.247635550427617e-09" free_energy=-20480.341796875 pbc="F F F"
O        0.36777598      -1.38926388       0.84985432      -0.00047505       0.00030422      -0.00020230
N        1.54102603      -0.78462500       1.09924666      -0.00010204      -0.00051044       0.00015885
C        1.48169557       0.65147580       0.85285589      -0.00015348      -0.00060603      -0.00060076
C        0.86112069       1.20237884      -0.41844214      -0.00011289      -0.00085717       0.00012231
O        1.14190962       2.26817468      -0.84278906      -0.00004528       0.00049672      -0.00019339
O        0.06164429       0.36391983      -1.20741337       0.00035718      -0.00060963       0.00056076
C       -0.99104882      -0.36081206      -0.83855890      -0.00010328      -0.00021124       0.00027549
O       -1.45442903      -1.25987675      -1.43364391      -0.00064813      -0.00035760      -0.00094992
N       -1.75557421       0.23107029       0.37572466       0.00096238       0.00021195      -0.00030529
O       -2.70280580      -0.39057203       0.75418579      -0.00143729      -0.00035930       0.00049466
O       -1.33837226       1.28058883       0.82599709       0.00054538      -0.00014013      -0.00012286
O        2.19743284      -1.40733381      -0.28513570       0.00021440       0.00029381       0.00038452
H        0.91326225       1.04645978       1.69810424      -0.00022424       0.00116318       0.00097359
H        2.49250141       1.04958508       0.90784108       0.00137608       0.00045353       0.00018226
H        1.13992046      -1.86565408      -0.12214482       0.00009972       0.00033018      -0.00053111
H        2.88914097      -2.01493552       0.02078817      -0.00025311       0.00039785      -0.00024679
