28
Properties=species:S:1:pos:R:3:forces:R:3 charge=0 spin=1 energy=-22633.5390625 stress="-6.079779041323619e-11 1.4702947193079297e-10 3.324008290839231e-10 1.4702947193079297e-10 -5.781274903249312e-10 3.227943953798551e-11 3.324008290839231e-10 3.227943953798551e-11 -1.3906640596028641e-11" free_energy=-22633.5390625 pbc="F F F"
C       -1.06487968      -1.92794016       0.83651739      -0.00086056      -0.00042488       0.00022206
C       -1.57591545      -1.27584654      -0.42639878      -0.00047999       0.00011069      -0.00010142
N       -0.60207058      -0.58233683      -1.18824080       0.00088871      -0.00120427       0.00081098
N        0.16866871       0.39903505      -0.53047130       0.00031519      -0.00009131      -0.00100571
N       -0.35731408       1.51192064       1.19438216       0.00161144       0.00096121       0.00026977
O       -1.36669859       1.34827019       1.64113656      -0.00236008       0.00043097       0.00054887
C        1.51476473       0.06691229      -0.31282092       0.00028804       0.00022818      -0.00069538
C        2.37202346       1.08352116       0.12433081      -0.00003533      -0.00002915      -0.00152016
C        3.70321043       0.80793620       0.38760671      -0.00045221       0.00025934       0.00089204
C        4.21114124      -0.47244213       0.21835111       0.00018457      -0.00025649      -0.00008116
C        3.36741159      -1.47657278      -0.23302307       0.00031013      -0.00031567      -0.00092310
C        2.03268497      -1.21587925      -0.50046007       0.00020607       0.00027418       0.00027897
N       -2.79738437      -0.36114846      -0.08318559       0.00028026       0.00052685      -0.00047565
O       -3.60474169      -0.77926340       0.71163619       0.00082678      -0.00013545      -0.00080436
O       -2.88815046       0.69021117      -0.68689788       0.00015792      -0.00089251       0.00036605
O       -0.42629180       2.73000610      -0.35334414      -0.00003916       0.00017977       0.00035834
H       -0.35643662      -2.70788622       0.56603253       0.00025166      -0.00003898      -0.00050104
H       -1.88887059      -2.37197736       1.38775075      -0.00000364      -0.00067261       0.00044636
H       -0.54757849      -1.21069227       1.47136883      -0.00025523       0.00007302       0.00057818
H       -2.04994164      -2.01340495      -1.07783400      -0.00004429       0.00032482      -0.00014377
H       -1.02994763      -0.16128537      -2.00268129      -0.00131524       0.00078820       0.00045842
H        1.99586113       2.09228670       0.23184326      -0.00046739       0.00068983      -0.00032268
H        4.35300231       1.60798051       0.71953023       0.00004022      -0.00090562      -0.00006819
H        5.25153251      -0.68271357       0.42712979      -0.00020868      -0.00003172       0.00028589
H        3.74969810      -2.47833143      -0.38467549       0.00002355       0.00004341       0.00010299
H        1.38780422      -1.99410538      -0.88176606       0.00041781       0.00004764       0.00075907
H       -0.11854197       1.62472543      -0.72428486       0.00041026       0.00050324       0.00010158
H       -1.36549975       2.83550064      -0.55450207       0.00030935      -0.00044291       0.00016303
