21
Properties=species:S:1:pos:R:3:forces:R:3 charge=0 spin=1 energy=-35547.203125 stress="-1.5180494639110975e-09 -6.019428844261654e-10 -4.531976738331167e-10 -6.019428844261654e-10 1.2680922978347553e-09 4.407016418461751e-10 -4.531976738331167e-10 4.407016418461751e-10 1.6387518078642138e-11" free_energy=-35547.203125 pbc="F F F"
C        4.50318210      -0.98464174       0.22853385      -0.00021820       0.00034036      -0.00038168
O        3.33812714      -0.46814251      -0.36999098       0.00020593       0.00056764       0.00016797
C        2.52956247       0.21216167       0.55688826       0.00067443       0.00025052       0.00031221
C        1.26138672       0.64933294      -0.09825897       0.00056881      -0.00066686      -0.00031826
C        0.57937208       1.77444469       0.39650473      -0.00007430      -0.00030738      -0.00042683
C       -0.66480510       2.08379328      -0.05469724       0.00013235       0.00000031       0.00010660
C       -1.34696757       1.17568941      -0.96834924       0.00007918      -0.00141266      -0.00032890
Cl      -2.22971141      -0.00058253       0.26401699      -0.00021367       0.00045414      -0.00042047
C       -0.48598107       0.24333840      -1.68624719      -0.00166082       0.00039017       0.00093745
C        0.75461315      -0.04361210      -1.20850531       0.00062412      -0.00044703      -0.00122425
Cl      -3.21031151      -1.89289905       2.27808174      -0.00063118       0.00029609       0.00042686
H        5.06936282      -1.49635590      -0.54577282       0.00088063      -0.00048468       0.00030073
H        4.25478415      -1.69547892       1.02477618      -0.00014216       0.00015097       0.00170190
H        5.11744321      -0.18421673       0.65586532       0.00072689       0.00171477       0.00050298
H        3.05622790       1.08265521       0.97134594      -0.00092534      -0.00185397      -0.00031990
H        2.28488620      -0.45067390       1.40174345      -0.00010520      -0.00020131      -0.00162381
H        1.05979988       2.40874825       1.13265005       0.00109022      -0.00000992       0.00021121
H       -1.18604299       2.96203552       0.29806127       0.00007218      -0.00052041       0.00003277
H       -0.87795478      -0.26457970      -2.55596657      -0.00028676       0.00123641       0.00013214
H        1.37199315      -0.79261554      -1.68269407      -0.00108927       0.00056581      -0.00028801
H       -2.13853653       1.62569925      -1.56156541       0.00029268      -0.00006253       0.00049913
