24
Properties=species:S:1:pos:R:3:forces:R:3 charge=0 spin=1 energy=-24125.728515625 stress="1.7979553956770644e-10 -1.3318743330437144e-10 -3.0551061680483826e-10 -1.3318743330437144e-10 -7.320342249039768e-11 -3.6858652241456014e-10 -3.0551061680483826e-10 -3.6858652241456014e-10 -2.401178422761774e-10" free_energy=-24125.728515625 pbc="F F F"
C        2.93935790      -0.94710173       1.81080553       0.00178012      -0.00069750       0.00141323
N        2.87900981      -0.67280601       0.38519305       0.00015944      -0.00048809      -0.00066465
C        4.07834137      -0.91456546      -0.39659754       0.00123656      -0.00070845       0.00165622
C        1.75235206      -0.23925473      -0.22881571      -0.00041527      -0.00033516      -0.00066209
O        1.71897328      -0.10740262      -1.46944563      -0.00031223       0.00041199      -0.00052702
C        0.61270769       0.14969936       0.60843753       0.00068139      -0.00029892       0.00098389
N       -1.28812042       2.24776750      -1.63463363      -0.00080365      -0.00013432      -0.00172026
O       -1.54467287       1.64062889      -2.52116428       0.00024250      -0.00017363       0.00160569
C       -0.67831297      -0.30366457       0.18081157      -0.00075984      -0.00024098      -0.00039315
O       -1.07358081      -0.70115919      -0.88009539      -0.00007793      -0.00005338       0.00023764
O       -3.11956578       0.85328666       0.08741193      -0.00050857       0.00085593      -0.00022248
N       -2.92516697      -0.01218390       0.89195708       0.00029197      -0.00084352      -0.00000250
O       -3.70539784      -0.70062958       1.46897734       0.00050960       0.00048908      -0.00039436
O       -1.58238283      -0.21016288       1.28824811       0.00013465      -0.00049226      -0.00010755
O        0.39007126       2.03117254      -1.17992031       0.00166416      -0.00101161       0.00106347
H        2.09664264      -1.55865642       2.13029407       0.00017809      -0.00013803       0.00011320
H        2.95569503      -0.02911481       2.40270466      -0.00023693       0.00120031       0.00026480
H        3.85603851      -1.49686756       2.01472384      -0.00155319       0.00004139       0.00012556
H        3.88149028      -0.65673259      -1.43151695      -0.00030588      -0.00061220      -0.00064684
H        4.90330528      -0.30650539      -0.01834280      -0.00008095       0.00031187       0.00005029
H        4.36752421      -1.96610358      -0.33889717      -0.00065190       0.00104319      -0.00166080
H        0.73855547       0.22329138       1.67793037      -0.00005849       0.00022122      -0.00046834
H        0.40017659       1.50866743      -0.19251059      -0.00065643       0.00125921      -0.00015779
H        0.81525912       1.23179726      -1.65399508      -0.00045744       0.00039391       0.00011428
