17
Properties=species:S:1:pos:R:3:forces:R:3 charge=0 spin=1 energy=-112112.7890625 stress="-1.300801740627966e-11 1.1222230783536347e-10 6.447203014514624e-12 1.1222230783536347e-10 -5.315850537535027e-10 -4.986567755937976e-11 6.447203014514624e-12 -4.986567755937976e-11 -5.587946771967722e-10" free_energy=-112112.7890625 pbc="F F F"
O        0.96605878       2.85311019       1.14287179      -0.00060509       0.00074595       0.00088465
S        1.04384581       2.34738199      -0.17568048       0.00185513      -0.00070035      -0.00092328
O        2.19291721       2.42310790      -1.00211197      -0.00123405       0.00004378       0.00000268
Cl       1.60404629      -0.51641030       1.92875743       0.00014839      -0.00003555       0.00011384
Cl      -0.54647568       3.01554107      -1.25675828       0.00009032       0.00007407       0.00005814
O       -1.45387968       1.19220757       1.28496735      -0.00024132      -0.00028199      -0.00001997
C       -1.27565044       0.55136377       0.30544430      -0.00020653       0.00056386      -0.00006616
O       -2.19756810       0.16943781      -0.58622277       0.00003624       0.00003345       0.00015345
N       -3.57794738       0.64785585      -0.11974898      -0.00022751      -0.00030188      -0.00079754
O       -3.84664453       1.71115537      -0.54479139       0.00017017       0.00056423       0.00004525
O       -4.13890027      -0.15485025       0.52630418      -0.00004803      -0.00027595       0.00060710
O       -0.03180039       0.17481767      -0.16001651       0.00019029      -0.00034475      -0.00001989
P        0.69070142      -1.39948081       0.20556865       0.00010398      -0.00001019       0.00002638
Cl       2.30848062      -0.75967918      -1.01322215       0.00006032       0.00005567       0.00005737
Cl       1.60588967      -3.23183403       0.57316511       0.00003567      -0.00011522      -0.00005138
Cl      -1.00564389      -1.94736252       1.41443832      -0.00002545       0.00002937       0.00015283
Cl      -0.31632945      -2.17121210      -1.51334463      -0.00010264      -0.00004414      -0.00022382
