18
Properties=species:S:1:pos:R:3:forces:R:3 charge=0 spin=1 energy=-14790.697265625 stress="-9.999032712926237e-10 -4.102665940308725e-08 5.48054224225325e-08 -4.102665940308725e-08 1.6501536137525363e-08 -1.0456875365605356e-08 5.48054224225325e-08 -1.0456875365605356e-08 5.568228544916565e-09" free_energy=-14790.697265625 pbc="F F F"
C        3.10982255      -0.65129797      -0.83511446       0.00415930       0.00144185       0.00023749
C        2.02828019      -0.73877473       0.22715514       0.00120902       0.00236994      -0.00309923
N        0.96755201       0.26269903       0.02916125      -0.00030483      -0.00122356      -0.00417426
C        1.15762801       1.50187593       0.48553046      -0.00071332       0.00442672      -0.00270222
N        1.33848337       2.56658674       0.89251505      -0.00656221      -0.00108443      -0.00361480
C       -0.11162943       0.00515555      -0.87830017       0.00207716       0.00779200      -0.01115286
N       -1.38986817      -0.26946845      -0.17765381       0.00425619       0.01996219      -0.02418703
C       -2.73663436       0.11897502      -0.16399787      -0.01719190       0.08523136      -0.07121032
O       -3.31523635       0.90082179      -0.82059686       0.05208927      -0.09329752       0.10498981
N       -1.68395287      -1.19794370       0.82470625      -0.02372575      -0.03461745       0.02355809
N       -1.11947064      -1.97883757       1.42869202      -0.04428756       0.00332551       0.00650486
H        3.57607955       0.33405464      -0.82618840       0.00256061      -0.00102440       0.00027356
H        3.88101128      -1.39920104      -0.65180849       0.00319881       0.00216721       0.00241872
H        2.70111045      -0.82910194      -1.83117334       0.00626554       0.00012821       0.00074505
H        2.44078272      -0.58130207       1.22298474       0.00031047       0.00247502      -0.00100264
H        1.55306507      -1.72030567       0.23385449       0.00178718       0.00267163      -0.00139523
H       -0.33011698       0.85905620      -1.51750358       0.00897937       0.00033194      -0.01123288
H        0.14392360      -0.85461174      -1.49606242       0.00589261      -0.00107671      -0.00495604
