29
Properties=species:S:1:pos:R:3:forces:R:3 charge=0 spin=1 energy=-21295.29296875 stress="1.1295868684868537e-09 -1.6736446672993566e-09 -1.327174259380115e-09 -1.6736446672993566e-09 -2.8854345579532037e-09 -1.4131562586783275e-09 -1.327174259380115e-09 -1.4131562586783275e-09 -1.157239304383495e-09" free_energy=-21295.29296875 pbc="F F F"
C        3.09955795      -0.79914430       0.41535795      -0.00082204       0.00062674       0.00046531
N        1.99802487      -0.00042419      -0.15450543       0.00012621       0.00009251      -0.00025019
C        2.37266345       1.34270969      -0.50921627       0.00063878      -0.00017037      -0.00069189
O        3.49643598       1.72828861      -0.41561842      -0.00021255       0.00011656      -0.00059515
C        0.66170487      -0.17104632       0.73517813      -0.00034070      -0.00137650      -0.00014448
O        0.82387212      -0.60740391       1.83332291      -0.00020926       0.00014067      -0.00016105
C       -0.47422745       0.70315776       0.31030851       0.00094211       0.00006250       0.00026324
C       -1.26664859       1.21130326       1.33256782       0.00063372      -0.00028440       0.00002798
C       -2.35312514       2.01941393       1.03317989       0.00003489      -0.00000414       0.00057063
C       -2.64970569       2.32359906      -0.28622100       0.00008805       0.00111439       0.00033242
C       -1.86150529       1.81462928      -1.31081021      -0.00057565       0.00008744       0.00019471
C       -0.78002734       1.00280231      -1.01584892       0.00001010       0.00008648      -0.00008056
O        0.47669947      -1.60306726      -0.63539193       0.00068176      -0.00122285      -0.00006282
C       -0.72250551      -2.21126423      -0.96998938      -0.00051129       0.00139382      -0.00105113
C       -1.28940152      -3.00109945       0.19510568      -0.00019586      -0.00090873      -0.00097942
O       -2.37906762      -3.50770923       0.19275782      -0.00072443      -0.00125432      -0.00113708
H        2.72266457      -1.80468229       0.56412396       0.00054802       0.00073268       0.00016261
H        3.40964001      -0.37322970       1.36474625      -0.00090137       0.00216971       0.00055654
H        3.93023111      -0.78990878      -0.28392717      -0.00030035       0.00014874       0.00148202
H        1.53796516       1.95346492      -0.86779302       0.00012690      -0.00122587      -0.00091866
H       -1.02379589       0.95709007       2.35536887       0.00127786       0.00007343       0.00018287
H       -2.96783934       2.40915195       1.83334872       0.00052793       0.00009741       0.00075111
H       -3.49799236       2.95327865      -0.52035070      -0.00033137       0.00094618      -0.00067802
H       -2.09985752       2.03879719      -2.34235490      -0.00040978       0.00049496       0.00032699
H       -0.19772316       0.57762153      -1.82358626      -0.00008537      -0.00027714       0.00021239
H        1.47012312      -0.63678505      -0.91816040      -0.00019781      -0.00054047       0.00026001
H       -0.59007207      -2.92219435      -1.79801434       0.00023688      -0.00043810      -0.00016876
H       -1.50106488      -1.50332462      -1.29239251       0.00011298      -0.00117061       0.00054316
H       -0.60836329      -3.07510452       1.06861437      -0.00016813       0.00048934       0.00058708
