19
Properties=species:S:1:pos:R:3:forces:R:3 charge=0 spin=1 energy=-25931.798828125 stress="6.961561327401e-10 7.942578261754818e-10 -3.500033318726281e-10 7.942578261754818e-10 -1.2886397504630054e-09 4.3899575641326294e-10 -3.500033318726281e-10 4.3899575641326294e-10 3.0813629425807676e-10" free_energy=-25931.798828125 pbc="F F F"
O        0.04623209      -1.61326095      -0.36090382      -0.00000411       0.00034007       0.00125223
C       -0.85430661      -0.61139640      -0.64994235       0.00035951      -0.00016409      -0.00026226
C        0.03206360       0.38376782      -0.05856950       0.00004569      -0.00015825      -0.00066769
N        2.06855469      -0.24335809       0.06207784      -0.00025284       0.00064394       0.00028637
C        2.37621429      -0.79747431       1.37890565       0.00029689       0.00024209      -0.00010204
Cl       3.33273811       0.77730493      -0.54194658       0.00006089       0.00033164      -0.00001183
C       -2.17523371      -0.81569427       0.08029089       0.00021234      -0.00025576      -0.00043881
N       -3.04825749       0.39074865      -0.03537730      -0.00072014       0.00091732      -0.00039038
O       -2.49664575       1.47187672       0.09488717      -0.00114997      -0.00113483       0.00005861
O       -4.23031728       0.23460328      -0.23878052       0.00148472       0.00139862       0.00046988
H        1.88845378      -0.98737661      -0.60993025      -0.00039977      -0.00029233       0.00048468
H       -1.05031238      -0.45678674      -1.72180402      -0.00049733       0.00016306      -0.00040617
H       -0.01841634       0.52006563       1.01121241      -0.00039447       0.00074048      -0.00005254
H        0.46371133       1.19167394      -0.63032355      -0.00027390       0.00057584       0.00012264
H        2.39767084       0.00711214       2.11278517       0.00116201       0.00017097       0.00006545
H        1.56685594      -1.49218892       1.59876096       0.00082208       0.00019543       0.00002077
H        3.33125181      -1.32412292       1.38949014      -0.00100755      -0.00182696      -0.00025807
H       -1.98642759      -0.95887906       1.14364142      -0.00103421      -0.00028086      -0.00057687
H       -2.72298934      -1.66265486      -0.32020377       0.00128986      -0.00160643       0.00040573
