13
Properties=species:S:1:pos:R:3:forces:R:3 charge=0 spin=1 energy=-8807.1474609375 stress="1.9650172600194082e-09 1.1298325608422033e-09 2.0899043606803502e-10 1.1298325608422033e-09 4.969994971126823e-10 -6.390314943871545e-10 2.0899043606803502e-10 -6.390314943871545e-10 2.47626896765496e-09" free_energy=-8807.1474609375 pbc="F F F"
O       -2.48692443      -0.41374096      -0.26456586       0.00056207      -0.00041187      -0.00036448
C       -1.47311600      -0.19726795       0.47982574       0.00178179       0.00005427       0.00020167
N       -0.61493187       0.52522067      -0.17484402      -0.00036900      -0.00035873       0.00032106
C        0.67511626       0.98705673       0.26551079       0.00038084      -0.00014585      -0.00086819
O        1.74259399       0.33851254      -0.36934653      -0.00018051      -0.00085843       0.00047666
C        1.84454166      -1.02762694      -0.02943839       0.00064176      -0.00156945      -0.00009802
H       -1.66474831       0.32184267      -0.98985290      -0.00043728       0.00075397       0.00138420
H       -1.38673081      -0.57283855       1.49815616      -0.00047251       0.00043964      -0.00061445
H        0.74520853       0.85878532       1.35643741      -0.00029988       0.00042167      -0.00105914
H        0.78387008       2.04130562       0.01852553      -0.00075603       0.00004050       0.00057775
H        1.91981507      -1.15743069       1.05738941      -0.00056531       0.00042589       0.00035155
H        2.74958388      -1.40820278      -0.49535988       0.00038236       0.00069454       0.00036675
H        0.98817195      -1.59992568      -0.39755746      -0.00066859       0.00051351      -0.00067567
