10
Properties=species:S:1:pos:R:3:forces:R:3 charge=0 spin=1 energy=-12262.9189453125 stress="9.511884613289112e-10 -7.070934393560435e-10 2.1718163292078208e-13 -7.070934393560435e-10 8.989011202054087e-10 9.294916724321423e-14 2.1718163292078208e-13 9.294916724321423e-14 8.149312117049917e-14" free_energy=-12262.9189453125 pbc="F F F"
O       -0.59883740       1.62162457       0.00013558      -0.00003102       0.00005279       0.00004733
C       -0.12146328       0.45693444      -0.00012389       0.00157154       0.00010789       0.00000950
N        1.18764215       0.49528217      -0.00007089       0.00028905       0.00020507      -0.00000060
C        2.05927209      -0.58942575      -0.00024045      -0.00106561       0.00064430       0.00000701
O        3.24853120      -0.47094876       0.00024869      -0.00057936       0.00028473      -0.00014640
O       -0.85854001      -0.67191227      -0.00035821       0.00039463      -0.00074509       0.00000571
C       -2.16405806      -0.52760233      -0.00000976      -0.00067596       0.00100660      -0.00002958
N       -3.31044891      -0.50363357       0.00029583      -0.00011849      -0.00043143      -0.00005862
H        0.68915051       1.77208031       0.00024317       0.00000101      -0.00108290       0.00002168
H        1.54745170      -1.56649880      -0.00090007       0.00021432      -0.00004198       0.00014397
