17
Properties=species:S:1:pos:R:3:forces:R:3 charge=0 spin=1 energy=-24426.517578125 stress="-3.042913920836554e-09 -1.001337207595654e-11 6.789349638047781e-10 -1.001337207595654e-11 1.5442640499685467e-09 -7.311840022339311e-10 6.789349638047781e-10 -7.311840022339311e-10 -2.629530482245457e-10" free_energy=-24426.517578125 pbc="F F F"
C       -1.76941205      -0.83561686      -0.53054761       0.00047550      -0.00075027       0.00022639
C       -2.83754200      -1.85077908      -0.18249730      -0.00108567      -0.00041601      -0.00036499
C       -1.34206185       0.07554770       0.42256180      -0.00018114      -0.00065306       0.00036670
O        0.33497127      -0.98298362       0.65880362      -0.00129020       0.00076681       0.00021233
C        1.67732512      -0.81788440       0.84321498       0.00101560       0.00087863       0.00044286
Cl       2.49397034      -0.03475870      -0.58351436       0.00103454      -0.00132334      -0.00173401
N       -0.72241971       1.36335586       0.03943248      -0.00038940      -0.00021923       0.00030786
O       -0.62027755       1.62552912      -1.13558994       0.00095782      -0.00085098       0.00077015
O       -0.38129996       2.06888986       0.96631195      -0.00154924       0.00005600       0.00018969
H       -0.56132304      -1.34055053      -0.29432915       0.00047225      -0.00024423      -0.00003128
H       -1.69913598      -0.49654855      -1.55875256       0.00012974       0.00030928      -0.00038666
H       -3.83511402      -1.44642760      -0.35986315       0.00005148       0.00105944       0.00142058
H       -2.72782373      -2.74447245      -0.79468658      -0.00048598       0.00129079      -0.00105157
H       -2.77020686      -2.15194838       0.86298774      -0.00026229      -0.00131320      -0.00086091
H       -1.59867866       0.06772915       1.47052072       0.00026508       0.00026327      -0.00004971
H        1.88023764      -0.15936757       1.68755957       0.00034726       0.00063433      -0.00110391
H        2.17767105      -1.77792396       0.97066779       0.00049447       0.00051154       0.00164597
