24
Properties=species:S:1:pos:R:3:forces:R:3 charge=0 spin=1 energy=-29965.9765625 stress="-8.942901974506867e-11 9.72958380529576e-10 -5.554877668956237e-10 9.72958380529576e-10 -7.981025562653343e-11 -4.4934014842290537e-10 -5.554877668956237e-10 -4.4934014842290537e-10 -9.003406353791377e-10" free_energy=-29965.9765625 pbc="F F F"
C        3.10365173      -1.52771926      -0.32523012       0.00035310       0.00017184       0.00020952
N        2.63606272      -0.76145279       0.81960684       0.00147450      -0.00006837       0.00070512
C        1.50012177       0.03713034       0.72408733       0.00029561       0.00031668       0.00114257
S        0.64642350       0.17647992      -0.80624396      -0.00021094      -0.00025225       0.00023663
O       -0.06389006      -1.04030110      -1.12253142      -0.00076127       0.00111604      -0.00059819
O        1.50829053       0.75756955      -1.80440087      -0.00087076      -0.00052094      -0.00147152
C       -0.60441403       1.40777945      -0.41390572       0.00061198      -0.00045276       0.00014893
C       -1.70100299       0.79064378       0.41737729       0.00048679       0.00024855      -0.00012934
O       -1.61322899       0.49649163       1.57167718       0.00009166       0.00080366      -0.00035012
O       -2.78707286       0.59750037      -0.36825114       0.00029969       0.00073290      -0.00016545
O       -3.85025416      -0.00468986       0.36240394       0.00028881       0.00117236       0.00029562
C       -3.69768141      -1.41318760       0.21459924       0.00012624       0.00070697       0.00085872
O        3.72287885       0.59023950       0.80517080      -0.00049801      -0.00112456      -0.00059742
H        2.36722692      -2.32545076      -0.45014557       0.00091944      -0.00035831      -0.00003669
H        3.15803144      -0.94806346      -1.24522217      -0.00070760       0.00020315      -0.00003585
H        4.06916735      -1.96399966      -0.08610605       0.00033070      -0.00037914      -0.00053746
H        0.81600573      -0.04202672       1.56451455      -0.00127842      -0.00038624       0.00089068
H       -0.96143520       1.75155212      -1.38347419      -0.00006423      -0.00089884       0.00064711
H       -0.12778488       2.21833177       0.13236118      -0.00053820      -0.00019815       0.00015175
H       -3.74794085      -1.69652010      -0.83650522      -0.00044812      -0.00013529      -0.00039397
H       -2.76311989      -1.75103358       0.66223023       0.00164694      -0.00054744       0.00075347
H       -4.54416984      -1.82702194       0.75947470      -0.00113702      -0.00120389      -0.00175996
H        2.57716133       0.98680140       0.82725764      -0.00066432       0.00008267      -0.00032991
H        4.10987327       0.59889703       1.69457550       0.00025348       0.00097112       0.00036559
