27
Properties=species:S:1:pos:R:3:forces:R:3 charge=0 spin=1 energy=-29686.994140625 stress="-1.649999359365495e-09 6.174997735364229e-10 1.22689233772455e-10 6.174997735364229e-10 4.5706582962878883e-10 5.973443961693192e-10 1.22689233772455e-10 5.973443961693192e-10 2.3029005091768084e-10" free_energy=-29686.994140625 pbc="F F F"
C       -4.81380728       0.82075608       0.78773002      -0.00102949      -0.00115101      -0.00049346
C       -3.42022390       0.22438070       0.74640379       0.00002205       0.00027859      -0.00106354
N       -3.34859379      -0.79450766      -0.30143123      -0.00025159       0.00045832      -0.00114706
C       -2.24585628      -1.61794910      -0.40581846       0.00026442       0.00014469       0.00062129
O       -0.96985923      -0.96975118      -0.95777742       0.00035894       0.00065041       0.00078657
C        0.00452351      -0.24530593       0.17505568      -0.00033504       0.00005456       0.00068545
O       -0.38230767      -0.34165605       1.29398114      -0.00081605      -0.00029835       0.00012821
O        1.19882603      -0.55995623      -0.33695168      -0.00013211      -0.00022924       0.00096151
C        2.27961781       0.03035966       0.40563836       0.00035411      -0.00003421       0.00058925
C        3.56202323      -0.35760085      -0.30005913      -0.00016233       0.00028670      -0.00038904
C        4.73492252       0.38578889       0.28412293      -0.00054991      -0.00047851      -0.00101495
O        5.72496264      -0.13990914       0.71238501       0.00184745      -0.00106400      -0.00031647
Cl      -0.35675497       1.66982987      -0.67485988       0.00074365      -0.00073790      -0.00006454
H       -5.05770323       1.30878689      -0.15896415      -0.00099236       0.00194917       0.00030938
H       -5.56349771       0.05291765       0.98178440      -0.00124756      -0.00027052       0.00128942
H       -4.87809106       1.57605862       1.57016336      -0.00103873      -0.00085797      -0.00092779
H       -2.67338559       1.00761475       0.59759317       0.00175624      -0.00152341      -0.00009381
H       -3.18102245      -0.26590396       1.69119449       0.00185575       0.00139192      -0.00092524
H       -3.77996520      -0.53116584      -1.17491113      -0.00018385      -0.00054027      -0.00038338
H       -2.40224159      -2.42589422      -1.11465089       0.00003035       0.00031519       0.00055213
H       -1.91136346      -1.97951171       0.56229098       0.00083475      -0.00005597       0.00033042
H        2.13642525       1.11419358       0.40793350       0.00034010       0.00017816       0.00078578
H        2.24899643      -0.33628465       1.43291321      -0.00085593      -0.00021128       0.00067051
H        3.74582183      -1.42928105      -0.24091507       0.00025521      -0.00009237      -0.00002743
H        3.47396200      -0.06920603      -1.35222795       0.00032897       0.00094755      -0.00087883
H        4.63505258       1.49109362       0.29478501      -0.00125989       0.00025427      -0.00028469
H       -1.19082041      -0.18133671      -1.49559809      -0.00013773       0.00063562       0.00029990
