13
Properties=species:S:1:pos:R:3:forces:R:3 charge=0 spin=1 energy=-80409.8515625 stress="-8.597887957151329e-10 -7.122374218182514e-11 -3.136312043405809e-10 -7.122374218182514e-11 -1.9002110995813837e-10 3.4605984744473517e-10 -3.136312043405809e-10 3.4605984744473517e-10 -5.722124440943333e-10" free_energy=-80409.8515625 pbc="F F F"
C        2.37459278      -1.29361332      -0.70392455       0.00040370      -0.00058282       0.00056320
C        2.50417828      -0.33393856       0.32541720      -0.00100970      -0.00032806      -0.00044838
O        3.58533968      -0.54143144       0.97627356       0.00137198      -0.00023079      -0.00012481
C        1.65333202       0.84822812       0.67203325       0.00000648      -0.00003104      -0.00033295
C        0.22128817       0.66426063       0.22264370      -0.00003839      -0.00056804       0.00075364
O       -0.27518849       1.13542347      -0.75228422      -0.00004679       0.00049713      -0.00098440
O       -0.40950765      -0.14171663       1.11415037      -0.00042237      -0.00033047       0.00003812
Br      -2.14092194      -0.54100808       0.70375441       0.00018615       0.00000846       0.00015789
H        3.70549209      -1.30151877      -0.04426257       0.00014539       0.00011206       0.00059098
H        2.22807464      -2.29312160      -0.29527726      -0.00047327       0.00061823      -0.00031738
H        1.80483062      -1.09766361      -1.60445463      -0.00019793       0.00016236      -0.00027592
H        2.05161016       1.72623850       0.16124749       0.00007398       0.00056507      -0.00016493
H        1.71712966       1.01195129       1.74744326       0.00000064       0.00010802       0.00054482
