15
Properties=species:S:1:pos:R:3:forces:R:3 charge=0 spin=1 energy=-8837.943359375 stress="-4.1017673702015145e-09 6.216993586605213e-10 6.522580392465116e-11 6.216993586605213e-10 -3.824132566165872e-09 4.6551315580067865e-10 6.522580392465116e-11 4.6551315580067865e-10 -8.377946114634938e-10" free_energy=-8837.943359375 pbc="F F F"
O        1.61035624      -0.95226606      -0.19685994      -0.00036313       0.00018233      -0.00017136
C        2.27248228       0.25014485       0.02830574       0.00011581       0.00009197      -0.00022049
C        1.02954436       1.00056987      -0.11412456       0.00026889       0.00063765      -0.00023337
O       -0.51071759      -0.24477030       0.71387869       0.00028920      -0.00039434       0.00003284
C       -1.55281657      -0.55600211      -0.21130517      -0.00026943      -0.00046210       0.00059304
N       -2.62577409       0.38687605      -0.18052247      -0.00009274       0.00010449      -0.00100377
H        0.31287567      -0.82638716       0.48456266       0.00146863       0.00090724       0.00016420
H        3.02034104       0.48840399      -0.73980381      -0.00036190       0.00072235      -0.00044319
H        2.73823667       0.34309502       1.01701440      -0.00021710      -0.00167581      -0.00000218
H        0.60863705       1.63779219       0.65019533       0.00088973      -0.00035605       0.00128681
H        0.61972260       1.07714964      -1.11194928       0.00066793       0.00139648      -0.00027198
H       -1.14014475      -0.60332676      -1.22392771       0.00036997      -0.00229397      -0.00068800
H       -1.94648356      -1.54369734       0.04147079      -0.00001345      -0.00144161       0.00142515
H       -3.02987751       0.43663873       0.74556450      -0.00150734       0.00122538      -0.00110215
H       -2.31245184       1.31377939      -0.43631919      -0.00124526       0.00135666       0.00063449
