15
Properties=species:S:1:pos:R:3:forces:R:3 charge=0 spin=1 energy=-15603.0830078125 stress="1.52622595117613e-10 1.0065598354813687e-09 1.866395038518931e-09 1.0065598354813687e-09 -6.172339861443277e-10 -1.022778476494901e-11 1.866395038518931e-09 -1.022778476494901e-11 8.041056154262094e-10" free_energy=-15603.0830078125 pbc="F F F"
O        0.70611383       0.70227129       1.35606848      -0.00079671       0.00084174      -0.00029176
C        0.59095064       0.30601976       0.11781679       0.00018583       0.00029386       0.00034660
C        0.71548169       1.28093693      -1.02111087       0.00048691       0.00018981      -0.00006880
N        1.68576003      -0.79370428       0.18075983      -0.00129569      -0.00000042       0.00022739
O        2.93196209      -0.44694478      -0.34786799       0.00098920      -0.00091758      -0.00184988
O       -0.56706603      -0.61683810      -0.11373591       0.00069872      -0.00009246       0.00083270
C       -1.76638840      -0.08871812       0.04388030      -0.00007023      -0.00007844       0.00020608
O       -2.08975000       1.04003788       0.18492472      -0.00024486       0.00096558      -0.00002661
F       -2.65582739      -1.08572454      -0.00671940       0.00028738      -0.00059889      -0.00022812
H        1.47580789      -0.43600221       1.32594637      -0.00084407      -0.00114754      -0.00075267
H        1.65315359       1.82307975      -0.92706602       0.00000600      -0.00014389      -0.00045978
H        0.68178834       0.77527836      -1.98489677       0.00036502       0.00018407       0.00060138
H       -0.10494854       1.98951617      -0.94342905      -0.00044700      -0.00043100       0.00032277
H        1.43952049      -1.69794284      -0.21582689       0.00092310       0.00076878       0.00050842
H        3.28104178       0.22008474       0.26128642      -0.00024387       0.00016622       0.00063246
