31
Properties=species:S:1:pos:R:3:forces:R:3 charge=0 spin=1 energy=-23937.291015625 stress="2.5153212845907547e-09 -2.3257423764633245e-10 3.179767282812662e-10 -2.3257423764633245e-10 -7.396643297852279e-10 -4.818966892194965e-10 3.179767282812662e-10 -4.818966892194965e-10 -4.587074609041508e-10" free_energy=-23937.291015625 pbc="F F F"
O       -0.45582751      -0.58016422       1.97381380       0.00047207       0.00120747       0.00043863
C        0.16765923      -0.29722499       0.89930448      -0.00102696      -0.00008178      -0.00062141
C        1.25280057      -0.99170014       0.30935032      -0.00050597      -0.00053095       0.00080232
C        2.14078248      -0.23139208      -0.39830040      -0.00040239      -0.00011710       0.00070876
C        3.40182617      -0.85701456      -0.95030512      -0.00133349       0.00005467       0.00004307
C        4.60927654      -0.29007325      -0.23900525      -0.00086248       0.00028300      -0.00004530
O        5.22451908       0.68097724      -0.58532281       0.00122285      -0.00045028      -0.00200194
O        4.90471243      -0.99119641       0.87117215      -0.00023802       0.00051136       0.00092259
C        1.94608687       1.17700218      -0.60789948      -0.00053446       0.00048670      -0.00002798
C        0.80512824       1.79210344      -0.21136845      -0.00042948       0.00010789       0.00009041
C       -0.21904710       1.02564681       0.44741643      -0.00080106       0.00010370       0.00079886
C       -1.63478408       1.35021352       0.02668497       0.00032443      -0.00027871       0.00015107
O       -1.93353586       2.50234715      -0.18721089       0.00136442       0.00036448       0.00071004
C       -2.64949040       0.25743587      -0.11597503       0.00022253       0.00004679      -0.00096317
C       -3.97291518       0.56877749       0.18343889       0.00011164       0.00060039      -0.00185032
C       -4.96465521      -0.38317443       0.02310630       0.00026150       0.00047199      -0.00062181
C       -4.64322635      -1.64447301      -0.46075455       0.00010198      -0.00022952       0.00020903
C       -3.32971133      -1.95078348      -0.78465483       0.00085323      -0.00062519       0.00130913
C       -2.33277997      -1.00422800      -0.60619108       0.00040078      -0.00059089       0.00094177
H       -0.68069596       0.76773146       1.75004090      -0.00000837       0.00017118      -0.00004438
H        1.44406524      -2.02833320       0.55370146      -0.00041534      -0.00106287       0.00061484
H        3.37564220      -1.93696927      -0.82373263      -0.00046783      -0.00149833       0.00037146
H        3.50591165      -0.61432840      -2.00695209      -0.00067779       0.00049347      -0.00121303
H        5.65681698      -0.54963833       1.29375359      -0.00033428       0.00087248      -0.00075993
H        2.71216250       1.72477268      -1.14081887       0.00107893       0.00006290       0.00012183
H        0.59816906       2.82282172      -0.46625993       0.00019455      -0.00007740       0.00090957
H       -4.20662274       1.56294291       0.54026656      -0.00053016       0.00006017       0.00088297
H       -5.98995217      -0.14121739       0.27036861       0.00008270      -0.00043340       0.00104585
H       -5.41899810      -2.38798672      -0.59105880       0.00031197       0.00018096      -0.00196922
H       -3.08075584      -2.92970310      -1.17318065       0.00093619       0.00002089      -0.00040764
H       -1.31125142      -1.24875150      -0.86959761       0.00062808      -0.00012451      -0.00054582
