19
Properties=species:S:1:pos:R:3:forces:R:3 charge=0 spin=1 energy=-18712.681640625 stress="-2.5378607548809384e-10 1.6517921752612352e-10 1.7103307659027678e-10 1.6517921752612352e-10 -2.571273471918545e-10 6.648560590960528e-10 1.7103307659027678e-10 6.648560590960528e-10 -1.8594713269148855e-10" free_energy=-18712.681640625 pbc="F F F"
O        3.84487611       1.21051195       0.53245484       0.00055885       0.00095199      -0.00057328
N        3.18927285       0.64441559      -0.49021815      -0.00044155      -0.00084376       0.00007537
O        3.63799382      -0.56488367      -0.55779547      -0.00090361      -0.00010836       0.00013053
C        1.17554930      -0.70612815      -0.00707989      -0.00074106      -0.00001699      -0.00083494
C       -0.19640926      -0.97413536       0.37443793       0.00032818       0.00185117      -0.00049007
O       -0.58268347      -1.21707772       1.49255331      -0.00027788      -0.00010878       0.00203705
O       -1.02708443      -0.93436463      -0.71055013      -0.00025035       0.00082779      -0.00144443
C       -2.42379044      -1.02703875      -0.45519335      -0.00065851      -0.00021341       0.00052504
C       -3.09398633       0.31147103      -0.66324724      -0.00024393      -0.00034738       0.00020158
O       -2.93302605       1.22222638       0.41060035       0.00015995      -0.00039998       0.00031400
F       -1.57919388       1.65820799       0.33656991      -0.00008881       0.00025499      -0.00091559
H        3.52868194       2.12729577       0.52424622      -0.00012019      -0.00094035       0.00004293
H        2.81256163      -1.16804146      -0.69316503       0.00127923      -0.00059791       0.00086326
H        1.34465986      -0.41408808      -1.02871443       0.00021653       0.00163840      -0.00029862
H        1.87082963      -0.68839150       0.80804790       0.00037810      -0.00098240       0.00015450
H       -2.82986899      -1.73911219      -1.17594003       0.00064422      -0.00095351       0.00042588
H       -2.59971673      -1.38937820       0.55665095      -0.00004883      -0.00113319      -0.00057860
H       -4.17964948       0.18237560      -0.68849055      -0.00006944       0.00020643      -0.00074679
H       -2.76942609       0.78279541      -1.59334713       0.00027904       0.00091485       0.00111210
