14
Properties=species:S:1:pos:R:3:forces:R:3 charge=0 spin=1 energy=-76820.5390625 stress="-1.6449178824595734e-11 -6.895847087795559e-11 -1.5279966528169986e-11 -6.895847087795559e-11 -6.350379944120021e-11 -2.9805831739358746e-13 -1.5279966528169986e-11 -2.9805831739358746e-13 -2.3528337611544714e-10" free_energy=-76820.5390625 pbc="F F F"
C       -2.48247219      -1.44783793      -0.10041396       0.00001231      -0.00000096      -0.00018795
N       -1.12468799      -0.85711590      -0.17921376       0.00025845      -0.00004441       0.00017464
C       -1.13835230       0.68822124      -0.01271247      -0.00006109      -0.00002435      -0.00006878
C       -0.80388498       1.16019038       1.36503893      -0.00006740       0.00005130       0.00004445
O       -1.71533411       1.27184212      -0.86929700      -0.00000446       0.00002351      -0.00007588
Br       1.51230787       0.23655800      -0.63266458       0.00002280      -0.00000120      -0.00002073
H       -3.11712435      -0.92939058      -0.81369492      -0.00002424      -0.00003396       0.00000717
H       -2.87173982      -1.31938619       0.90656948      -0.00000070       0.00002642       0.00012171
H       -2.42991297      -2.50565293      -0.34420153      -0.00003725      -0.00003187       0.00000452
H       -0.66824484      -0.97845413      -1.09086124      -0.00004885       0.00001368      -0.00004855
H       -1.72532258       1.16793443       1.95615846       0.00003597      -0.00005442       0.00003050
H       -0.04465791       0.54466440       1.83595159       0.00002281      -0.00006379       0.00007265
H       -0.43238618       2.17729579       1.28396905       0.00003923       0.00006356      -0.00001045
H       -0.44435765      -1.25150870       0.47270195      -0.00014779       0.00007625      -0.00004318
