25
Properties=species:S:1:pos:R:3:forces:R:3 charge=0 spin=1 energy=-18513.732421875 stress="4.186719859688992e-10 -6.447350292537735e-11 -4.783420881615541e-10 -6.447350292537735e-11 2.6851831869123544e-10 2.368496510030127e-10 -4.783420881615541e-10 2.368496510030127e-10 4.1559347629949173e-10" free_energy=-18513.732421875 pbc="F F F"
C        0.88344332       3.21807128       0.26351849       0.00010869       0.00068450      -0.00105536
N        0.95760343       1.99265073      -0.52304319       0.00028114      -0.00014742      -0.00075436
C        0.90658601       0.80434494       0.30584530      -0.00008824      -0.00014086       0.00002861
N        0.75802751      -0.38885362      -0.51136915      -0.00015061      -0.00008747      -0.00060162
C        1.93105868      -1.19353801      -0.78179005       0.00077483       0.00074675      -0.00028456
C        2.31577563      -1.98348924       0.39906935      -0.00042014       0.00031763      -0.00133801
N        2.60790082      -2.56984079       1.34066753       0.00047072      -0.00087731       0.00181088
C       -0.41192592      -0.75799142      -1.10572593      -0.00016993      -0.00124192       0.00003392
O       -0.48963574      -1.68189082      -1.89083700       0.00014798       0.00114113       0.00019091
C       -1.67539443       0.01981646      -0.76854062      -0.00139502      -0.00071298      -0.00024921
N       -2.39453182      -0.36375495       0.35117584       0.00090049       0.00004169      -0.00030848
O       -1.61776347      -0.99898098       1.20598589      -0.00179486       0.00072595      -0.00063944
O       -2.14489863       1.64948673       0.87561224      -0.00057781       0.00052685       0.00104244
H       -0.07859429       3.23770504       0.77610856       0.00022598       0.00004309       0.00071600
H        1.68071091       3.31257393       1.01419947      -0.00099100       0.00010227      -0.00014257
H        0.93475153       4.07848824      -0.40172730       0.00053022      -0.00054033       0.00048611
H        1.79992103       1.98543744      -1.08604964      -0.00008601       0.00023988       0.00031567
H        0.05884654       0.90480481       0.98334159      -0.00020942       0.00011827       0.00073680
H        1.80097529       0.65319689       0.92733963       0.00031032      -0.00013939       0.00011043
H        2.77698428      -0.56468859      -1.06725929      -0.00039686      -0.00018219       0.00009279
H        1.70268150      -1.86647364      -1.60570622      -0.00005120       0.00000316       0.00005984
H       -2.34913030       0.05502727      -1.62108949       0.00006823      -0.00026958       0.00067496
H       -2.19135317      -1.20761809       1.95751025       0.00142947       0.00002494      -0.00046687
H       -1.57422185       1.17068870      -0.38550978       0.00030361       0.00046590       0.00097555
H       -2.52664689       2.38849767       1.37041352       0.00077894      -0.00084299      -0.00143449
