23
Properties=species:S:1:pos:R:3:forces:R:3 charge=0 spin=1 energy=-16544.07421875 stress="2.541890253837664e-09 -3.9193034928608483e-10 -9.047183557875371e-10 -3.9193034928608483e-10 1.563695839479351e-10 1.0620589824261728e-10 -9.047183557875371e-10 1.0620589824261728e-10 -6.303670918583748e-10" free_energy=-16544.07421875 pbc="F F F"
C       -1.77549471       2.30273217      -0.21563984      -0.00041933       0.00005138       0.00030235
O       -0.48269849       1.74723996      -0.08480364       0.00069773      -0.00059284      -0.00035506
C       -0.49536342       0.51846297       0.61052313       0.00031511      -0.00006402       0.00019278
N       -1.76443989      -1.58598808       0.86281427      -0.00022626       0.00152385      -0.00162429
O       -1.07565632      -2.40326494       1.12553881       0.00028384      -0.00173956       0.00167310
C        0.82760997      -0.12488304       0.79463317      -0.00032079      -0.00005436      -0.00009131
O        0.98008728      -0.85758363       1.77886174      -0.00062689      -0.00000697      -0.00022364
N        1.80261710       0.01944864      -0.14417704       0.00016344      -0.00002593       0.00021181
C        1.61722701       0.61722195      -1.45452214      -0.00055756      -0.00022007      -0.00000679
C        3.11858093      -0.52423159       0.12164092      -0.00019208       0.00011633       0.00019218
O       -1.71856041      -1.05558014      -1.13475843       0.00174075      -0.00166655       0.00030753
H       -2.22372727       2.49794873       0.76538169       0.00038408       0.00023305      -0.00039367
H       -1.66347664       3.24578967      -0.74643259       0.00013046      -0.00033275       0.00030262
H       -2.43495674       1.63878050      -0.78324807       0.00007964       0.00041354       0.00003926
H       -0.93688500       0.65374351       1.60217150       0.00047746       0.00006389       0.00036180
H        2.21064997       0.04863555      -2.17318046      -0.00038467       0.00052524      -0.00012954
H        0.57682775       0.58213261      -1.75889706      -0.00011896      -0.00049319       0.00029226
H        1.94317076       1.65886110      -1.47796941      -0.00040851      -0.00041864      -0.00028154
H        3.32658302      -1.38056369      -0.52685632      -0.00037353      -0.00038811       0.00025226
H        3.16646079      -0.84861358       1.15606513       0.00055990       0.00017744       0.00029004
H        3.87919255       0.23792515      -0.06229061      -0.00031373       0.00076495      -0.00005898
H       -1.15269447      -0.30734855      -0.29345220       0.00019564       0.00046347      -0.00012577
H       -1.01048379      -1.53771527      -1.58087255      -0.00108606       0.00167032      -0.00112663
