19
Properties=species:S:1:pos:R:3:forces:R:3 charge=0 spin=1 energy=-87518.0390625 stress="-6.781510353270903e-10 5.597726449035889e-11 -1.1916218012331115e-10 5.597726449035889e-11 -1.8907918286625858e-10 2.915431507322097e-10 -1.1916218012331115e-10 2.915431507322097e-10 -1.466830407137465e-10" free_energy=-87518.0390625 pbc="F F F"
C       -2.25076997       1.97176173      -0.89710584       0.00017413       0.00023153      -0.00009400
O       -2.80605652       0.80732603      -0.25945877      -0.00001946       0.00031430      -0.00011823
C       -2.08625093       0.05439293       0.54995348       0.00013897       0.00035641       0.00002146
O       -2.48055356      -0.95239382       1.04285007      -0.00028768      -0.00065825       0.00000202
N       -0.73806234       0.54566066       0.88513968       0.00054485       0.00034177      -0.00013059
C        0.38745684      -0.66586390       1.24691704      -0.00002241       0.00032663      -0.00071800
O        0.44233182      -0.88874312       2.41721867       0.00000200      -0.00023749       0.00047326
C        0.35802551      -1.78524155       0.22434104      -0.00007725       0.00041682       0.00015567
N        0.35836327      -1.36410229      -1.20419915      -0.00036563       0.00048310       0.00027573
O        1.11233646      -1.91402124      -1.95757274       0.00043689      -0.00034658      -0.00050698
O       -0.46221977      -0.51468827      -1.52476143       0.00012498      -0.00022194       0.00007974
Br       2.10165088       0.66245942       0.46280246       0.00006307      -0.00002311      -0.00001764
H       -3.05826078       2.38097115      -1.49269725       0.00018639       0.00002244       0.00003310
H       -1.42397169       1.68799012      -1.54626370      -0.00053178       0.00009140       0.00036526
H       -1.94277436       2.70918660      -0.15542750      -0.00020032      -0.00047843      -0.00038161
H       -0.74552481       1.03614953       1.78221118       0.00012289      -0.00007236      -0.00009793
H       -0.55845057      -2.35664718       0.37431891      -0.00042136      -0.00013460       0.00009473
H        1.23543724      -2.39836536       0.39021818       0.00030296      -0.00021508       0.00013424
H       -0.29725669       1.14107857       0.18302565      -0.00017139      -0.00019650       0.00042978
