15
Properties=species:S:1:pos:R:3:forces:R:3 charge=0 spin=1 energy=-22025.44140625 stress="-2.0742010331531446e-09 1.4441213502802697e-10 2.0315833459960686e-09 1.4441213502802697e-10 2.19048157390489e-09 2.04800199021804e-09 2.0315833459960686e-09 2.04800199021804e-09 -1.4930128244827756e-09" free_energy=-22025.44140625 pbc="F F F"
F        1.79075244      -1.27943555      -0.31606856      -0.00109207      -0.00062048       0.00116974
C        1.55336200      -0.20330849       0.46966257      -0.00073588      -0.00019071       0.00055301
C        0.80478954       1.09455434      -1.14875089      -0.00078660       0.00182852      -0.00098234
C       -0.05386203       1.91303654      -0.45165721       0.00022111      -0.00059569      -0.00107935
C       -1.03717953       1.43521478       0.41282328      -0.00040165       0.00019011       0.00085748
C       -1.21563019       0.08859360       0.69783791       0.00098866       0.00021595       0.00111509
Cl      -1.40249569      -1.14470821      -0.51950838      -0.00040513       0.00191122       0.00087810
N        0.62262015      -0.32714674       1.36439649       0.00008076       0.00137770      -0.00041652
H        2.43853817       0.40732613       0.58633042       0.00065489      -0.00117029      -0.00065664
H        1.65310412       1.53029564      -1.66217342       0.00182374      -0.00100778       0.00058600
H        0.48030816       0.13482045      -1.51661031       0.00125830       0.00033581      -0.00175962
H        0.16809421       2.97348390      -0.39887778      -0.00061114       0.00037551      -0.00019228
H       -1.47386008       2.12638997       1.12416928      -0.00135729      -0.00136682       0.00050455
H       -1.79598196      -0.17768795       1.56886087      -0.00002703      -0.00206001      -0.00028977
H        0.67175069       0.43621159       2.03090573       0.00038917       0.00077730      -0.00028735
