30
Properties=species:S:1:pos:R:3:forces:R:3 charge=0 spin=1 energy=-31558.271484375 stress="8.718748639724438e-11 -9.989764571116666e-11 3.206818977030679e-10 -9.989764571116666e-11 1.3743033100421798e-10 7.496103737736348e-11 3.206818977030679e-10 7.496103737736348e-11 -1.5981833911826726e-10" free_energy=-31558.271484375 pbc="F F F"
C       -3.53968329       2.60637496       0.33087794       0.00012751      -0.00048193      -0.00031989
N       -2.13072313       2.35954376       0.59697609      -0.00035310      -0.00091971      -0.00009838
O       -1.84798741       1.01670714       0.20871364      -0.00015104       0.00021854      -0.00029868
C       -0.70594650       0.98081059      -0.72153592       0.00007987      -0.00011869       0.00021103
C       -0.47755432      -0.38410043      -1.20513079      -0.00022894      -0.00015241       0.00000313
N       -2.95024450      -1.99526783      -0.22855551      -0.00084443       0.00068253      -0.00048172
O       -3.76460768      -1.27769956      -0.49230259       0.00088465      -0.00075117       0.00052798
S        0.62803284      -1.47595321      -0.57474178      -0.00036275       0.00000262       0.00036848
O        0.24909710      -1.97567578       0.82793961      -0.00009741       0.00016108      -0.00026083
C        2.05618410      -0.45218243      -0.21894050      -0.00018334      -0.00031680       0.00005585
C        2.74969119       0.09471908      -1.28841807       0.00104412      -0.00004321       0.00049493
C        3.88822096       0.84548739      -1.04740949       0.00003174      -0.00023461       0.00025973
C        4.33413873       1.03027752       0.25594198       0.00032994       0.00050490      -0.00106972
C        3.64002669       0.46464707       1.31486994      -0.00048159       0.00001835       0.00057630
C        2.49273882      -0.28317542       1.08308819      -0.00000816       0.00024089      -0.00000949
O       -2.11463608      -1.40906807       1.23844379      -0.00008595      -0.00027901      -0.00030386
H       -3.78501387       3.59106643       0.73004259      -0.00034015       0.00000286      -0.00029755
H       -3.70111288       2.62028745      -0.74579562       0.00006355       0.00012376       0.00102350
H       -4.20424954       1.86024921       0.77760206       0.00064509       0.00061473      -0.00012565
H       -1.96742929       2.36770606       1.60000836      -0.00028983       0.00036058       0.00002468
H        0.15862899       1.38467751      -0.18817674       0.00012900       0.00017263      -0.00003356
H       -0.96207338       1.66652518      -1.53076843       0.00004154      -0.00008923      -0.00002213
H       -1.00523274      -0.75911293      -2.07047170       0.00009456      -0.00002128       0.00007659
H        2.39475846      -0.06692469      -2.29842256      -0.00046091       0.00013765      -0.00052053
H        4.43381421       1.27997639      -1.87507205       0.00046843       0.00057596      -0.00088044
H        5.22809603       1.61080704       0.44350414      -0.00044598      -0.00046565       0.00056200
H        3.99189600       0.60279327       2.32910085       0.00015086      -0.00014362      -0.00008959
H        1.94172828      -0.73996719       1.89335446      -0.00005223      -0.00031281       0.00051768
H       -2.05948388      -0.43701051       1.04231289       0.00018723       0.00048059       0.00007492
H       -1.09968392      -1.71747798       1.08711521       0.00010820       0.00003257       0.00003549
