20
Properties=species:S:1:pos:R:3:forces:R:3 charge=0 spin=1 energy=-48812.203125 stress="-9.38283117868366e-10 5.617505904886855e-10 -1.7394374829393655e-10 5.617505904886855e-10 -3.958987027097294e-10 5.829547955471526e-10 -1.7394374829393655e-10 5.829547955471526e-10 -1.549461225991422e-09" free_energy=-48812.203125 pbc="F F F"
C        3.24112642      -1.70853891       0.79866147       0.00073892      -0.00007720       0.00016600
O        2.99439032      -0.32430464       0.66514806       0.00055249       0.00019896       0.00013959
C        2.67323741       0.03526718      -0.66020559      -0.00049692      -0.00033206      -0.00012715
C        2.17975670       1.46785724      -0.61369806      -0.00017059      -0.00017619      -0.00005437
N        1.08295473       1.68485150       0.32258912       0.00024784       0.00037539       0.00056195
O       -0.15754234       1.52256546      -0.26234844       0.00066352       0.00061548      -0.00016952
S       -0.88045998      -0.35672846      -0.38484305      -0.00038135       0.00027156      -0.00046849
O       -0.61167036      -0.41858705      -1.78419768       0.00016049       0.00013475      -0.00041604
O       -0.04342342      -0.91578512       0.62533472      -0.00007117      -0.00057960       0.00088692
Cl      -2.64835812      -1.33528535      -0.24813151       0.00009541       0.00006272       0.00023219
Cl      -2.37881556       1.42196113       1.15173613      -0.00041980       0.00009054      -0.00001048
H        3.49274426      -1.89475939       1.84001449       0.00003497      -0.00109914       0.00041100
H        4.07951260      -2.02260853       0.16729652       0.00111459       0.00088996      -0.00030501
H        2.35270980      -2.29000755       0.53128965      -0.00102363       0.00011082       0.00067121
H        1.91657591      -0.64049829      -1.07084544       0.00001768       0.00000867      -0.00108394
H        3.56089721      -0.02460364      -1.30440462      -0.00041853      -0.00014088      -0.00017224
H        1.85731227       1.81666639      -1.59249604       0.00002541      -0.00012114      -0.00062278
H        2.99120986       2.11112768      -0.27053298      -0.00032549       0.00008264       0.00035794
H        1.14176348       1.07636692       1.14001441      -0.00018165      -0.00027815       0.00021911
H       -0.92469118       1.85915344       0.39297883      -0.00016229      -0.00003761      -0.00021651
