18
Properties=species:S:1:pos:R:3:forces:R:3 charge=0 spin=1 energy=-34253.55078125 stress="5.332099206611929e-10 6.762991833220156e-10 3.5521177665920334e-10 6.762991833220156e-10 7.358312847927095e-10 1.4017953464673383e-09 3.5521177665920334e-10 1.4017953464673383e-09 -1.5217196391859034e-09" free_energy=-34253.55078125 pbc="F F F"
C        1.86659558      -1.87226319       0.84636625       0.00034386       0.00061111       0.00019276
C        1.75578481      -0.64724564       0.01441230      -0.00082779       0.00048882      -0.00035997
Cl       0.00668751      -1.20984180      -1.44872299       0.00047797       0.00013468       0.00052315
C        1.24058585       0.53391341       0.54805457       0.00002765       0.00042632       0.00050740
C        1.47542046       1.76551239      -0.13636580       0.00016478      -0.00016606      -0.00136071
N        1.64680626       2.75423691      -0.69927007       0.00000986       0.00017983      -0.00054294
S       -1.15236572       0.21760826       0.43786081      -0.00009018      -0.00033951      -0.00031543
C       -2.54702905      -0.18511905      -0.61380838      -0.00074959      -0.00039925      -0.00073522
O       -1.24250934       1.63920906       0.58467446       0.00055748      -0.00020051       0.00069621
O       -1.13323621      -0.70754686       1.53021068      -0.00019838      -0.00003839      -0.00004458
H        1.93758448      -2.77012869       0.23915106      -0.00031219       0.00095488       0.00044968
H        1.02903095      -1.95288192       1.53633159       0.00092966      -0.00080836       0.00018709
H        2.78635832      -1.77731288       1.43348116       0.00014597       0.00010495       0.00000190
H        2.37284085      -0.58599010      -0.87119653      -0.00018261      -0.00095756      -0.00046319
H        1.07611042       0.59640694       1.61620942      -0.00099504      -0.00125925       0.00108132
H       -2.55901369      -1.26208838      -0.73510963       0.00060132      -0.00055371      -0.00037063
H       -2.39660407       0.33406196      -1.55465148       0.00034079       0.00124514       0.00009570
H       -3.41417740       0.19883957      -0.07461741      -0.00024378       0.00057639       0.00045654
