14
Properties=species:S:1:pos:R:3:forces:R:3 charge=0 spin=1 energy=-78396.6640625 stress="-3.332369380437683e-10 4.125672720123319e-11 -4.5238882084852605e-11 4.125672720123319e-11 9.148173885087374e-10 4.100496053816016e-10 -4.5238882084852605e-11 4.100496053816016e-10 2.798467568787544e-10" free_energy=-78396.6640625 pbc="F F F"
C       -0.41402695      -0.03180489       0.97690958       0.00024131      -0.00027519       0.00052883
C        0.33026104      -1.18398641       0.74506081      -0.00100842       0.00002861      -0.00096613
Br       1.47500371      -0.25546838      -1.42278970      -0.00032917       0.00032860      -0.00023572
C       -1.85527053       0.05701725       0.60998463       0.00001168       0.00029159      -0.00035016
O       -2.58542613       0.92790055       0.99661859      -0.00000423      -0.00031090      -0.00002548
O       -2.22154808      -0.93093830      -0.21692850       0.00038713       0.00045866       0.00053997
C       -3.57360923      -0.85362918      -0.69135528       0.00099158      -0.00010246      -0.00107655
H        0.26753653       0.28202296      -0.11276701       0.00109100      -0.00063217      -0.00019366
H       -0.08276258       0.67433752       1.72727141      -0.00019025      -0.00026403       0.00029176
H       -0.08413509      -2.00486845       0.17975696       0.00044344       0.00026941       0.00086255
H        1.29869891      -1.32023516       1.20276067       0.00000569       0.00008795      -0.00006709
H       -3.72828885       0.08329648      -1.22198689      -0.00107400      -0.00087520       0.00009593
H       -4.27052211      -0.91438123       0.14202987      -0.00048208      -0.00015372      -0.00086445
H       -3.69595064      -1.69867277      -1.36054512      -0.00008371       0.00114848       0.00146024
