19
Properties=species:S:1:pos:R:3:forces:R:3 charge=0 spin=1 energy=-43073.1015625 stress="2.589700676125517e-09 1.1232289542917329e-09 -8.876622215048258e-10 1.1232289542917329e-09 -1.001057237104419e-09 -4.25768476031152e-10 -8.876622215048258e-10 -4.25768476031152e-10 -1.2803736959554612e-09" free_energy=-43073.1015625 pbc="F F F"
C        3.01554208      -1.41103074      -0.10497397      -0.00164217      -0.00009300      -0.00069884
C        1.52778835      -1.25749428      -0.04219537       0.00003350       0.00036609      -0.00065097
O        0.73999835      -2.14232295      -0.20674085       0.00017792      -0.00000045       0.00044361
C        0.98012782       0.15816846       0.32590798      -0.00022890       0.00005147       0.00002047
C        1.77999077       0.71025325       1.42739859      -0.00153506      -0.00038549       0.00048888
N        2.44579906       1.10221674       2.27439015       0.00002505       0.00006577       0.00035788
O       -0.35687194       0.01652676       0.79113508       0.00011551      -0.00019205       0.00019628
C       -1.47792087      -0.43707209      -0.37558722       0.00030673       0.00045452       0.00076544
O       -1.14251818      -0.27931996      -1.47954393       0.00032631      -0.00015088       0.00004661
Cl      -2.42815366      -1.63717221       0.35633041       0.00059330       0.00015610      -0.00041398
C        1.04815780       1.17306224      -0.85382243       0.00048444      -0.00027061       0.00007355
O        0.56854916       2.25799488      -0.77575774      -0.00011192       0.00085530      -0.00016283
O        1.73068824       0.68061289      -1.88824970       0.00003201      -0.00047904      -0.00002325
Cl      -2.48567382       1.49830222       0.47596702       0.00040734      -0.00003913      -0.00033870
H        3.38322766      -1.58427502       0.90912252       0.00135696       0.00050966       0.00172905
H        3.25368507      -2.27177309      -0.72335670      -0.00031960      -0.00131831      -0.00153560
H        3.50162576      -0.51638687      -0.48783365       0.00090668       0.00034099       0.00036960
H        1.73493970       1.35753416      -2.58353126      -0.00130512       0.00009747      -0.00004400
H       -0.94082136       0.92798562       0.94310108       0.00037678       0.00003168      -0.00062300
