34
Properties=species:S:1:pos:R:3:forces:R:3 charge=0 spin=1 energy=-44257.765625 stress="-2.2896624596313586e-09 -1.4860642716385541e-09 2.662816633858256e-09 -1.4860642716385541e-09 1.9344705837198717e-09 1.4680963111857182e-09 2.662816633858256e-09 1.4680963111857182e-09 -4.40519043465315e-09" free_energy=-44257.765625 pbc="F F F"
C       -1.66529445       2.66375088       0.58300222      -0.00068874      -0.00082150      -0.00007487
C       -1.34489663       1.20193287       0.73708391      -0.00028354      -0.00039041       0.00030909
C       -2.15494734       0.26427562       0.11005874      -0.00056323      -0.00037469       0.00030738
C       -1.87658763      -1.08869246       0.19674880      -0.00120902       0.00052810       0.00013185
Cl      -2.89139151      -2.22471586      -0.63786758      -0.00061250      -0.00065058       0.00043643
C       -0.79145752      -1.54212495       0.91416251       0.00162765      -0.00060080      -0.00042114
C       -0.00037404      -0.58913311       1.54003546       0.00036383       0.00094756       0.00078796
S        1.47716334      -1.21106836       2.37709892      -0.00110996       0.00030494      -0.00106299
O        1.48232800      -0.72419607       3.73520802       0.00089550       0.00110146       0.00039887
O        1.58960985      -2.61801394       2.08716876       0.00044447      -0.00077903       0.00071460
C        1.33606144       0.48584511      -1.52689381      -0.00017452       0.00031644      -0.00033605
C        1.39056483       1.82912484      -1.84776358       0.00041712      -0.00038113      -0.00113071
C        0.57339391       2.34123367      -2.85080651       0.00148715       0.00015183      -0.00069793
C       -0.30405373       1.49847582      -3.51949738       0.00045314       0.00023280      -0.00026131
C       -0.36396802       0.15306597      -3.18932312      -0.00050548       0.00137296       0.00061369
C        0.46235934      -0.35026887      -2.18688336      -0.00069460       0.00051400      -0.00024484
C       -0.22504795       0.78192322       1.47016476       0.00019059      -0.00052366      -0.00032037
C        0.70305826       1.77121559       2.11840395      -0.00058915      -0.00098763      -0.00022746
O        2.78563809      -0.27575324       0.58400871       0.00050746      -0.00042072      -0.00020599
H       -1.71071813       3.16852429       1.54832806      -0.00026016      -0.00014123       0.00106944
H       -0.90148867       3.16372803      -0.01694519       0.00042973       0.00042136      -0.00029957
H       -2.62239230       2.79698907       0.08220460      -0.00153009      -0.00086789       0.00015426
H       -3.00889162       0.59250430      -0.46787411       0.00061893      -0.00094572       0.00054941
H       -0.54676627      -2.59204710       0.99082083      -0.00018287       0.00114334       0.00079219
H        2.07233471       2.48733153      -1.31753883       0.00036433      -0.00027658      -0.00056009
H        0.61809756       3.39216186      -3.11267294       0.00156964      -0.00047539      -0.00080204
H       -0.94532221       1.89362821      -4.29731347       0.00105096       0.00030669       0.00000130
H       -1.05567524      -0.50209094      -3.70623670       0.00004402       0.00046092      -0.00067729
H        0.40607433      -1.40139407      -1.92316808      -0.00087137       0.00030784      -0.00015671
H        1.74072525       1.47223555       1.97199187       0.00088320       0.00032549      -0.00084002
H        0.57033715       2.76086492       1.68988053      -0.00094226       0.00099786       0.00020806
H        0.52653214       1.83034446       3.19244124      -0.00029189      -0.00060758       0.00196330
H        3.46355224      -0.94459387       0.42980002      -0.00010774      -0.00005090       0.00022990
H        2.31354282      -0.06610295      -0.32097726      -0.00073120      -0.00013959      -0.00034800
