19
Properties=species:S:1:pos:R:3:forces:R:3 charge=0 spin=1 energy=-12419.33984375 stress="-2.5095692191001717e-09 6.644677585931902e-10 1.527610371532262e-09 6.644677585931902e-10 3.947596693976152e-10 -2.586212355382145e-10 1.527610371532262e-09 -2.586212355382145e-10 -5.430370597636625e-10" free_energy=-12419.33984375 pbc="F F F"
C        0.68546226       1.36996943      -0.57509385       0.00018424       0.00016522      -0.00016092
C        0.41645082      -0.00553367      -0.63270074       0.00013411      -0.00007903       0.00001562
C       -0.64531839      -0.58336216       0.25690466      -0.00039322      -0.00084166       0.00015175
C       -2.02780626      -0.07620332      -0.12915728      -0.00104892       0.00076699       0.00113511
N       -3.02505149      -0.99465940      -0.07664958      -0.00094064       0.00054803      -0.00093978
O       -2.23104151       1.08129401      -0.43798808      -0.00039126      -0.00060183       0.00110261
C        2.09343058       0.15165534      -0.02108087       0.00032711      -0.00009811       0.00008726
N        1.95963624      -0.25306817       1.36975015      -0.00023693       0.00030541       0.00073117
O        2.93216075      -0.24382043      -0.85145397       0.00037313      -0.00106937      -0.00001752
H        2.09614222       1.35420794       0.14759424       0.00114270      -0.00008813       0.00014487
H        1.10658214       1.88436242      -1.42916618       0.00080864       0.00016864      -0.00089547
H        0.24671102       1.97664963       0.20602425      -0.00160374      -0.00090013      -0.00067466
H        0.59030916      -0.49777755      -1.57925617       0.00114757       0.00085473      -0.00043359
H       -0.61165162      -1.67388634       0.23765336       0.00000811      -0.00086302      -0.00057025
H       -0.46987305      -0.26808655       1.28802852      -0.00159933      -0.00044816       0.00034281
H       -3.95962294      -0.69150800      -0.28800808       0.00081724       0.00097562       0.00068638
H       -2.85795666      -1.95208714       0.16775488       0.00051716      -0.00025153      -0.00001109
H        1.90345106      -1.26808936       1.38050446       0.00115024       0.00022513      -0.00117961
H        2.83759568      -0.01760666       1.82218029      -0.00039589       0.00123131       0.00048569
