29
Properties=species:S:1:pos:R:3:forces:R:3 charge=0 spin=1 energy=-18578.298828125 stress="-4.47680059689759e-10 -3.468720033428241e-10 1.337144700519488e-10 -3.468720033428241e-10 5.493096533193409e-10 9.329715888739543e-10 1.337144700519488e-10 9.329715888739543e-10 -1.828138418424885e-09" free_energy=-18578.298828125 pbc="F F F"
C       -2.17477456      -2.41564291       0.66358566       0.00001005       0.00013722      -0.00021771
N       -2.23136034      -0.96553326       0.83460574       0.00028163      -0.00051868       0.00056054
N       -1.44332524      -0.23036009      -0.07431305      -0.00008592       0.00008890       0.00028270
C       -1.65077212      -0.48142559      -1.48976260      -0.00042000       0.00002156       0.00030594
C       -0.16495529       0.13291692       0.38675614      -0.00013423       0.00003797       0.00034526
N       -0.87752880       2.30650697       0.73924923      -0.00075787      -0.00126085      -0.00023085
O       -1.93301154       2.11428004       0.42855939       0.00034547       0.00070420      -0.00013722
C        1.01167856      -0.71851344      -0.06866580      -0.00008613      -0.00030208      -0.00153995
O        0.84393391      -1.72373306      -0.74499437       0.00004489      -0.00015754       0.00064754
N        2.24889585      -0.30742906       0.32083279      -0.00092256       0.00025271      -0.00103770
C        2.53555005       0.90650412       1.05487503      -0.00071706      -0.00093347      -0.00058086
C        3.41009896      -1.07915128      -0.07314609      -0.00009215       0.00021800      -0.00041395
O        0.33266773       2.41496819      -0.86600730       0.00060946       0.00025547       0.00075382
H       -1.14042537      -2.74310027       0.74751123       0.00000863       0.00071326       0.00077844
H       -2.56844835      -2.77036017      -0.29519044      -0.00054307      -0.00081089       0.00002748
H       -2.75379136      -2.87331205       1.46626160       0.00037056       0.00019427       0.00005059
H       -3.18485749      -0.63384592       0.74669753       0.00017679      -0.00044355       0.00003868
H       -1.35554819      -1.48261446      -1.80373804      -0.00024315       0.00044923      -0.00022542
H       -1.05468335       0.22997453      -2.06153066       0.00029199      -0.00096313      -0.00099817
H       -2.70578026      -0.31668298      -1.72343287       0.00005531       0.00140223      -0.00031206
H       -0.17914567       0.14767929       1.47460065       0.00046745      -0.00010234       0.00071165
H        3.06598554       0.66723170       1.98077552       0.00118081      -0.00018647       0.00095954
H        3.16376417       1.57048087       0.45664170       0.00078859       0.00105632      -0.00015374
H        1.62829921       1.44701619       1.30038884      -0.00135321      -0.00009418      -0.00032183
H        4.05290640      -0.48823639      -0.73118083       0.00046312      -0.00014174      -0.00070024
H        3.98892499      -1.36347967       0.80911918      -0.00017166      -0.00000004       0.00193448
H        3.08239413      -1.97078762      -0.59715496       0.00031122       0.00048950      -0.00028129
H        0.15541657       1.27953845      -0.27764246      -0.00046706      -0.00041577      -0.00016542
H       -0.26180813       2.51563096      -1.62028075       0.00058819       0.00030967      -0.00008065
