28
Properties=species:S:1:pos:R:3:forces:R:3 charge=0 spin=1 energy=-24781.98046875 stress="8.142919671882964e-10 -9.649053778204575e-10 3.117625949067282e-11 -9.649053778204575e-10 1.7186133072222276e-10 1.764491330824569e-10 3.117625949067282e-11 1.764491330824569e-10 -2.1622526685805e-11" free_energy=-24781.98046875 pbc="F F F"
N        4.24295126       1.02480984      -0.90428772       0.00031789       0.00041878      -0.00086333
C        4.09534608      -0.10053339      -0.72471770       0.00048243      -0.00107491      -0.00097647
C        3.80693403      -1.49895343      -0.44369573       0.00029826       0.00006069       0.00031960
C        2.43844028      -1.65419340       0.29115584      -0.00061607      -0.00026655       0.00038624
O        2.41690012      -2.34520886       1.28449747      -0.00059730       0.00015199      -0.00012362
C        1.36869414      -0.88634328      -0.29074881      -0.00008562      -0.00027615       0.00040513
N       -0.02869261       2.19372857       0.14565975       0.00090957       0.00049657      -0.00000084
O        0.00564135       3.25367580      -0.14215220       0.00008382      -0.00041020       0.00127143
C       -0.00431151      -1.05355056       0.13947690      -0.00050652      -0.00064015       0.00065064
O       -0.45454992      -1.63272959       1.08662460      -0.00008321      -0.00053734      -0.00033689
O       -0.82526287      -0.32730853      -0.73539175      -0.00027549      -0.00001110       0.00109491
C       -2.15488207      -0.14991020      -0.40199674      -0.00027204       0.00004077      -0.00030851
C       -2.55016588       0.26607451       0.86180783      -0.00024152       0.00039076       0.00000942
C       -3.89358092       0.51469261       1.09840237      -0.00014699      -0.00040490      -0.00017174
C       -4.83044935       0.35250641       0.08715442      -0.00011079       0.00044114       0.00013882
C       -4.41931611      -0.06367354      -1.17018769       0.00016665      -0.00013581      -0.00045945
C       -3.07837130      -0.31634063      -1.41993664       0.00020352      -0.00044500      -0.00029629
O        1.73049235       1.57513200       0.65241038      -0.00061977       0.00002241       0.00022319
H        3.78252027      -2.04846989      -1.38689092      -0.00002993       0.00079526       0.00048349
H        4.58288566      -1.92226303       0.19115008      -0.00109620       0.00095631       0.00034484
H        1.49594034      -0.56508918      -1.31869101       0.00000812       0.00099425      -0.00013635
H       -1.82043703       0.35247621       1.65290536       0.00041991       0.00102948      -0.00060165
H       -4.20994546       0.82468323       2.08604817       0.00056178      -0.00160671       0.00055420
H       -5.87756316       0.54355529       0.28087385       0.00050589       0.00042761      -0.00058798
H       -5.14360304      -0.19825202      -1.96298304      -0.00007235       0.00078499       0.00022031
H       -2.73655160      -0.64498990      -2.39287042      -0.00010357      -0.00126079      -0.00009277
H        1.61938376       0.53131662       0.34849588       0.00038032      -0.00012255      -0.00006780
H        2.48664319       1.88259834       0.11892747       0.00051931       0.00018148      -0.00107846
