18
Properties=species:S:1:pos:R:3:forces:R:3 charge=0 spin=1 energy=-43044.1640625 stress="-1.5076851989093143e-09 -1.5794371366339988e-10 -3.1433899927435505e-10 -1.5794371366339988e-10 1.3150361910518882e-09 3.485916832968172e-10 -3.1433899927435505e-10 3.485916832968172e-10 2.7811284525336433e-11" free_energy=-43044.1640625 pbc="F F F"
C       -3.17001204      -1.22827028      -0.04955788       0.00035487      -0.00015222       0.00025201
C       -1.67741275      -1.17031612      -0.01602288      -0.00020409       0.00087714       0.00051436
O       -0.95228742      -2.05134605       0.35037817       0.00105315       0.00088662       0.00069495
C       -1.04131666       0.13261993      -0.56227929      -0.00025614       0.00018904       0.00035718
O       -1.65582314       0.52980962      -1.70419944      -0.00031704      -0.00050169      -0.00021120
O        0.33153965      -0.04520380      -0.76421134      -0.00021674       0.00030181      -0.00024271
C        1.40937942      -0.43779004       0.55575512      -0.00038421       0.00024661      -0.00021613
O        1.04740953      -0.14340475       1.61142488       0.00057154      -0.00052261      -0.00045988
Cl       2.33824944      -1.69905217      -0.06226548       0.00031579      -0.00052947      -0.00014600
N       -1.23564721       1.27753504       0.47538923       0.00103663      -0.00021803      -0.00066960
O       -1.63683543       0.98787204       1.57344342      -0.00054742      -0.00062586       0.00087196
O       -0.98001021       2.38304452       0.05176556      -0.00010337      -0.00000989      -0.00043847
Cl       2.46395368       1.45951484      -0.47587780      -0.00007167       0.00053328       0.00062062
H       -3.50424836      -2.07575033       0.54205303      -0.00078972       0.00013249      -0.00013181
H       -3.49231524      -1.34716181      -1.08557052      -0.00049991       0.00039103      -0.00024543
H       -3.60700234      -0.30468244       0.32872074      -0.00028043      -0.00050012      -0.00069705
H       -1.43675795       1.46712080      -1.84574421       0.00047542      -0.00035045       0.00039631
H        0.95999699       0.81624101      -0.96920130      -0.00013636      -0.00014710      -0.00024901
