21
Properties=species:S:1:pos:R:3:forces:R:3 charge=0 spin=1 energy=-14245.994140625 stress="-1.3215020189250026e-09 -1.715613873187749e-09 -1.3918256824840824e-10 -1.715613873187749e-09 1.1543550837433969e-10 1.2852948705344147e-09 -1.3918256824840824e-10 1.2852948705344147e-09 -3.8586223105596673e-10" free_energy=-14245.994140625 pbc="F F F"
C       -3.48851098       0.09962512       0.02743488      -0.00037631      -0.00127585      -0.00023364
C       -2.23006297      -0.45629815      -0.61263903      -0.00035653      -0.00028506      -0.00064996
C       -0.99340613      -0.28012629       0.22824689       0.00042482      -0.00000048       0.00009716
O       -1.02609119       0.10602895       1.37847399       0.00002262      -0.00071248      -0.00043029
C        0.30531767      -0.60704332      -0.53136770       0.00009719       0.00032388       0.00040805
O        0.45345021       0.00117862      -1.69028381       0.00000496      -0.00017655      -0.00086188
C        1.79944264       0.95078813      -0.13272702      -0.00060016       0.00110175      -0.00032771
C        1.08648786       2.19170530       0.17175540       0.00059551       0.00154362      -0.00126964
C        1.62483614      -0.24649538       0.56319988       0.00050232      -0.00027943       0.00023693
F        2.60223429      -1.18038158       0.36154687      -0.00095296      -0.00063620       0.00089408
H       -4.35013748      -0.05488784      -0.62125890      -0.00074412       0.00057935      -0.00123693
H       -3.38862365       1.17004161       0.20969509      -0.00004867      -0.00117765       0.00101178
H       -3.68944495      -0.37554130       0.98699228      -0.00156307      -0.00069698       0.00056341
H       -2.32304459      -1.53061297      -0.81382345       0.00027393       0.00149515       0.00129102
H       -2.00497117      -0.00478761      -1.58159609       0.00074639       0.00018342      -0.00012136
H        0.43134001      -1.71264003      -0.52140051      -0.00015296       0.00018531       0.00036280
H        2.54484124       0.95163499      -0.91895726      -0.00122064       0.00047246       0.00050741
H        0.25283829       2.03069753       0.85045138       0.00162498       0.00005626       0.00086325
H        0.77559512       2.68684004      -0.74343959       0.00113092       0.00044997      -0.00043724
H        1.82347343       2.83610756       0.67164552      -0.00000516      -0.00121923      -0.00023944
H        1.21241621      -0.27379340       1.56373116       0.00059712       0.00006894      -0.00042742
