27
Properties=species:S:1:pos:R:3:forces:R:3 charge=0 spin=1 energy=-12673.6669921875 stress="2.3458283926469647e-11 -5.319011342486135e-10 4.904485706447304e-10 -5.319011342486135e-10 1.7367011995172987e-10 -3.5575450918479135e-10 4.904485706447304e-10 -3.5575450918479135e-10 2.444375812871158e-10" free_energy=-12673.6669921875 pbc="F F F"
C        1.58407828      -1.71683547       1.10825432       0.00050195       0.00040254      -0.00037223
C        1.81695661      -1.22001805      -0.30567856      -0.00063804      -0.00003594      -0.00022829
C        2.89230782      -0.37290513      -0.54090791      -0.00081252       0.00097371      -0.00065610
C        3.05224376       0.83685396       0.12525147      -0.00042997       0.00041157      -0.00042772
C        1.97204542       1.65771042       0.45260085       0.00052652      -0.00002059       0.00003117
C        0.66695816       1.42205604       0.01690042       0.00007415      -0.00052714       0.00020456
C        0.07147689       0.19017168      -0.22690748      -0.00010544      -0.00012526       0.00044340
C       -1.04869079       0.08250449      -1.22694552      -0.00051183       0.00030510       0.00011650
O       -2.22150155      -0.49084704      -0.68353974      -0.00027066      -0.00027996       0.00002538
C       -2.91350905       0.38132884       0.19300752      -0.00056928      -0.00049508      -0.00077268
C       -4.15726709      -0.32555010       0.67828567       0.00017834      -0.00066751       0.00040555
H        0.61323337      -2.20126752       1.22286632       0.00045165       0.00056650      -0.00065069
H        2.35084431      -2.45774929       1.34790552      -0.00035927      -0.00035476      -0.00055265
H        1.66713957      -0.90402132       1.82959485      -0.00018919       0.00037246       0.00058447
H        1.62016028      -1.97336166      -1.06617660      -0.00018743      -0.00054026      -0.00014873
H        3.56794179      -0.58344057      -1.36639982      -0.00061259      -0.00039791       0.00077406
H        4.02572645       1.31498303       0.11981821       0.00060901      -0.00011297       0.00078826
H        2.21857110       2.67472927       0.73638425       0.00055677      -0.00030491      -0.00010906
H        0.14260379       2.30384580      -0.35201754       0.00046109      -0.00069435       0.00032866
H       -0.04533959      -0.51171860       0.57671578       0.00002441      -0.00027321      -0.00017872
H       -1.26940125       1.06735582      -1.66149222       0.00075001       0.00109377       0.00001808
H       -0.75352215      -0.57588295      -2.04601721       0.00117664      -0.00000034      -0.00000691
H       -3.17410653       1.30509821      -0.34194207      -0.00029211      -0.00116894       0.00027393
H       -2.27356178       0.66389753       1.03870829      -0.00016063       0.00187847      -0.00153644
H       -3.89176347      -1.23740112       1.21306761       0.00025553      -0.00080746       0.00167955
H       -4.72224028       0.31932124       1.35198521      -0.00168558       0.00087111       0.00007410
H       -4.79475406      -0.59438751      -0.16361161       0.00125770      -0.00006896      -0.00010681
