25
Optimized Energy: -40709.052890 eV
 O                 -0.14271500   -1.90769300    0.15294300
 C                 -0.07744700   -0.58993000   -0.14407000
 C                 -1.13302200    0.07341300   -0.78416000
 C                 -2.36151000   -0.69403100   -1.21547200
 C                 -3.11337400   -1.33463900   -0.06703000
 C                 -3.36350800   -2.64108500   -0.05405300
 C                 -3.55106700   -0.41189500    1.03163900
 C                 -1.02825700    1.43476600   -1.01864400
 C                  0.09956700    2.13990200   -0.62956500
 Cl                 0.19300400    3.84684800   -0.93261500
 C                  1.14337500    1.49247000   -0.00565900
 C                  1.06676400    0.12087400    0.22105800
 C                  2.24622300   -0.49041200    0.89321800
 O                  2.83244100   -0.00201600    1.80054700
 Cl                 2.84193400   -1.98802000    0.15205900
 H                 -1.06218400   -2.21190700    0.11277200
 H                 -3.03238300   -0.00224000   -1.73080200
 H                 -2.08175100   -1.46514400   -1.93856600
 H                 -3.04919200   -3.28391300   -0.86884300
 H                 -3.90840800   -3.10326700    0.75925000
 H                 -2.69179900    0.07403300    1.49892800
 H                 -4.18162800    0.38454500    0.62804400
 H                 -4.11010700   -0.94342500    1.79924600
 H                 -1.83674000    1.95693900   -1.51455800
 H                  2.02413900    2.03504700    0.30809300