25
Optimized Energy: -40708.029149 eV
 C                  3.14112500   -1.03806100    1.42148900
 C                  3.08847300    0.04342600    0.65559200
 C                  4.13332800    0.35951300   -0.37463600
 C                  1.94832300    1.01840000    0.78556400
 C                  1.11119600    1.18965500   -0.51801800
 C                  0.01651800    2.17157800   -0.25197500
 C                 -1.22339600    1.75776300   -0.00331800
 C                 -1.57199500    0.34513300    0.00523800
 C                 -0.69847200   -0.59557700   -0.38408900
 C                  0.61369200   -0.17080000   -0.95785000
 O                  1.23562800   -0.85737700   -1.72767100
 H                  3.95934200   -1.74287200    1.34593400
 H                  2.36405200   -1.25943100    2.14309100
 H                  4.98488300   -0.31273000   -0.28605600
 H                  3.72428600    0.25153200   -1.38146500
 H                  4.49078400    1.38747600   -0.26871100
 H                  1.27896400    0.70750300    1.59069800
 H                  2.33395300    2.00814300    1.04917200
 H                  1.76642100    1.55792100   -1.30936300
 H                  0.26573000    3.22431700   -0.20486400
 H                 -2.56260900    0.06946700    0.34153700
 Cl                -2.50070500    2.86935400    0.37162200
 C                 -0.98281800   -2.04909300   -0.29741200
 O                 -0.17680900   -2.90819000   -0.23575000
 Cl                -2.73158000   -2.46386500   -0.24510800
