27
Optimized Energy: -53245.580774 eV
C       3.814079000000000      1.475455000000000      0.184561000000000
C       3.726181000000000      0.169778000000000      0.532065000000000
C       4.834960000000000     -0.814275000000000      0.300392000000000
C       2.514300000000000     -0.192968000000000      1.158833000000000
O       0.855596000000000     -0.204096000000000     -0.518814000000000
C      -0.460720000000000     -0.384460000000000     -0.253234000000000
C      -1.000732000000000     -1.651491000000000     -0.034288000000000
C      -2.358011000000000     -1.803085000000000      0.178522000000000
C      -3.194774000000000     -0.696620000000000      0.163182000000000
Cl     -4.898791000000000     -0.896055000000000      0.420355000000000
C      -2.681716000000000      0.563883000000000     -0.062978000000000
C      -1.311631000000000      0.722601000000000     -0.250168000000000
C      -0.837922000000000      2.105877000000000     -0.485245000000000
O      -1.213437000000000      2.871623000000000     -1.296294000000000
Cl      0.358869000000000      2.678567000000000      0.762274000000000
Cl      2.267453000000000     -2.682673000000000     -0.529199000000000
H       4.712702000000000      1.877655000000000     -0.268293000000000
H       2.980020000000000      2.149079000000000      0.329892000000000
H       4.623567000000000     -1.402694000000000     -0.590823000000000
H       4.912508000000000     -1.517119000000000      1.127971000000000
H       5.783865000000000     -0.291612000000000      0.186402000000000
H       1.806814000000000      0.577128000000000      1.424544000000000
H       2.364893000000000     -1.199538000000000      1.528282000000000
H      -0.340194000000000     -2.508892000000000     -0.052652000000000
H      -2.774105000000000     -2.786605000000000      0.347966000000000
H      -3.334105000000000      1.425778000000000     -0.089942000000000
H       1.304012000000000     -1.109351000000000     -0.695229000000000
