51
Optimized Energy: -52244.447742 eV
C       4.272840000000000     -1.567666000000000     -0.104007000000000
C       2.782417000000000     -1.749178000000000     -0.430959000000000
C       3.270895000000000      0.337377000000000     -1.232026000000000
C       4.602782000000000     -0.153155000000000     -0.643420000000000
H       4.471844000000000     -1.672444000000000      0.963856000000000
H       4.860699000000000     -2.322232000000000     -0.623555000000000
H       4.980196000000000      0.518371000000000      0.129775000000000
H       5.356161000000000     -0.207396000000000     -1.427192000000000
C       1.879707000000000     -1.247848000000000      0.707564000000000
H       0.834362000000000     -1.334465000000000      0.413646000000000
H       2.000686000000000     -1.879975000000000      1.591323000000000
C       2.417712000000000      1.073807000000000     -0.185564000000000
H       1.451174000000000      1.324225000000000     -0.620821000000000
H       2.899268000000000      2.016273000000000      0.093816000000000
H       2.530870000000000     -2.786561000000000     -0.661979000000000
H       3.410128000000000      0.978612000000000     -2.104690000000000
C       2.240435000000000      0.195997000000000      1.054257000000000
H       3.201565000000000      0.172504000000000      1.576948000000000
N       1.326434000000000      0.771265000000000      2.069822000000000
H       0.892346000000000     -0.039388000000000      2.933768000000000
H       1.628688000000000      1.694747000000000      2.365225000000000
N       2.657065000000000     -0.927082000000000     -1.634040000000000
C       1.347228000000000     -0.851166000000000     -2.244603000000000
H       1.413347000000000     -0.266297000000000     -3.164009000000000
H       1.022072000000000     -1.858679000000000     -2.513677000000000
H       0.565375000000000     -0.401057000000000     -1.618936000000000
C      -0.207027000000000      0.696588000000000      1.982394000000000
O      -0.389251000000000     -0.304583000000000      2.784969000000000
Cl     -0.666662000000000      2.399543000000000      2.840878000000000
C      -0.897237000000000      0.717562000000000      0.642574000000000
C      -0.935176000000000      1.874651000000000     -0.144476000000000
C      -1.531397000000000     -0.408997000000000      0.130913000000000
C      -1.557676000000000      1.888379000000000     -1.372748000000000
H      -0.482352000000000      2.781571000000000      0.229986000000000
C      -2.172600000000000     -0.383661000000000     -1.110924000000000
C      -2.194873000000000      0.756163000000000     -1.876029000000000
H      -2.679119000000000      0.785673000000000     -2.843185000000000
O      -1.564872000000000     -1.632103000000000      0.702855000000000
C      -2.519854000000000     -2.460520000000000     -0.031381000000000
C      -2.676640000000000     -1.768437000000000     -1.400374000000000
H      -2.057724000000000     -2.250906000000000     -2.162459000000000
H      -3.711196000000000     -1.788511000000000     -1.743827000000000
C      -1.922584000000000     -3.848360000000000     -0.114659000000000
H      -1.765624000000000     -4.254091000000000      0.884736000000000
H      -2.593210000000000     -4.514386000000000     -0.659730000000000
H      -0.963387000000000     -3.817376000000000     -0.633385000000000
C      -3.819076000000000     -2.436594000000000      0.756410000000000
H      -4.564926000000000     -3.073556000000000      0.277839000000000
H      -3.646635000000000     -2.791777000000000      1.771822000000000
H      -4.212278000000000     -1.419743000000000      0.809360000000000
Cl     -1.556458000000000      3.351352000000000     -2.315120000000000
