51
Optimized Energy: -52246.607730 eV
 C                  4.32913000   -0.80134800   -0.35721200
 C                  2.90491400   -1.34350300   -0.55279300
 C                  2.93182800    0.58639700   -1.78178000
 C                  4.34681500    0.50537200   -1.18899800
 H                  4.56072700   -0.63682100    0.69639900
 H                  5.05461600   -1.51341100   -0.74657400
 H                  4.58950600    1.38568100   -0.59145000
 H                  5.08078800    0.43964400   -1.99014500
 C                  1.93774800   -0.80365200    0.50983500
 H                  0.92941500   -1.14647600    0.28736500
 H                  2.19157200   -1.19721500    1.49767900
 C                  1.96342700    1.34146700   -0.85812900
 H                  0.96269800    1.29888000   -1.28570200
 H                  2.24160300    2.39683100   -0.79459500
 H                  2.87309100   -2.43588200   -0.55632400
 H                  2.92212200    1.04505900   -2.77279600
 C                  1.97894300    0.72610000    0.54505000
 H                  2.93133300    1.00868200    0.99939600
 N                  0.98946200    1.30852200    1.46176200
 H                 -0.17546200    2.36116900    3.62823200
 H                  1.36407600    1.78154700    2.27407000
 N                  2.58592600   -0.83137900   -1.88550700
 C                  1.27745300   -1.15070300   -2.41489900
 H                  1.18636900   -0.73464200   -3.41991500
 H                  1.18180200   -2.23584200   -2.49640200
 H                  0.42614800   -0.78086800   -1.82510500
 C                 -0.35061000    1.21678400    1.48107700
 O                 -1.02097900    1.69601900    2.39962100
 Cl                 0.73164000    2.84482000    4.48517800
 C                 -1.08680200    0.55318200    0.35341300
 C                 -1.47625000    1.28227000   -0.76892200
 C                 -1.52869300   -0.75427300    0.45013600
 C                 -2.24082600    0.69174500   -1.75924900
 H                 -1.17866200    2.31764600   -0.87073400
 C                 -2.31295000   -1.34114100   -0.53460300
 C                 -2.67369200   -0.62669800   -1.65648600
 H                 -3.28187400   -1.06100100   -2.43878900
 O                 -1.25116300   -1.58187500    1.48369800
 C                 -1.67251200   -2.93469900    1.10245000
 C                 -2.65430600   -2.73044700   -0.07376500
 H                 -2.51517200   -3.48942300   -0.84418700
 H                 -3.69240900   -2.77883900    0.26482500
 C                 -0.42807900   -3.68276700    0.65178200
 H                  0.32490000   -3.67351100    1.44016200
 H                 -0.67735500   -4.71865500    0.41613600
 H                 -0.00451400   -3.22120400   -0.24325000
 C                 -2.30619400   -3.56131500    2.32459300
 H                 -2.65812700   -4.56685600    2.08925500
 H                 -1.58277200   -3.62829800    3.13720500
 H                 -3.15241700   -2.96282000    2.66116700
 Cl                -2.67188600    1.62070100   -3.16444200