26
#Cluster:2
O          -5.52970000      0.04250000      0.80360000
N          -4.61450000     -0.96470000      0.68350000
O          -4.62580000     -1.32120000     -0.55280000
C          -2.69580000      0.16980000     -0.21430000
C          -1.52516083      0.95201046     -0.55232455
O          -1.64256267      2.06351365     -1.06542481
C          -0.17985840      0.38847859     -0.27356418
C           0.87722056      1.29492233     -0.15274006
C           2.15079105      0.86407857      0.13061249
C           2.40545870     -0.49952633      0.28736999
O           3.70207129     -0.83110934      0.57295085
C           4.01156058     -2.15318723      0.91736709
O           3.92507931     -3.04465196     -0.14362786
C           1.36932353     -1.41527716      0.13731762
C           0.08781192     -0.96990476     -0.13223364
H          -5.62987900      0.23967599      1.74558839
H          -3.96600000     -0.68180000     -1.09330000
H          -3.56236152      0.80300817     -0.13297236
H          -2.56252540     -0.76708929      0.28769403
H           0.66512862      2.34575930     -0.28134066
H           2.96921546      1.55811269      0.23717438
H           3.33362099     -2.53276856      1.69302525
H           5.03440248     -2.09580446      1.31859637
H           4.50685532     -2.75313093     -0.85624775
H           1.55924612     -2.47447402      0.20828516
H          -0.69273428     -1.70348740     -0.26555779
