28

C          -1.71330000      0.60850000      0.97230000
C          -0.33700000      1.59150000     -0.34140000
C           0.86941018      1.19089884      0.18478526
C           1.33680000     -0.09410000     -0.02050000
C           2.58036229     -0.61343781      0.66338614
N           3.07122085      0.11802058      1.80990045
C           2.24158570      0.00253379      2.99731408
C          -2.95942139      1.02016080      0.44432658
C          -3.60948942      0.26045428     -0.48571992
C          -3.09523557     -0.99526156     -0.85914974
C          -1.93248678     -1.45749738     -0.32142342
C          -1.20951624     -0.69693984      0.64563795
O          -0.08510000     -1.08210000      1.08710000
H          -1.32226713      1.10447353      1.84854956
H          -0.70526289      1.11969590     -1.23988099
H          -0.69385577      2.59480743     -0.17338980
H           1.29633659      1.78477840      0.98128121
H           1.02934076     -0.64130207     -0.89943051
H           3.38797435     -0.64596667     -0.07975069
H           2.38394774     -1.63927400      0.98671608
H           3.20473774      1.09535899      1.56883252
H           2.29313307     -1.02553146      3.35454588
H           1.18609967      0.24228321      2.82802322
H           2.63889855      0.66107658      3.76894873
H          -3.37176134      1.97050111      0.75324639
H          -4.53709864      0.60008473     -0.92227517
H          -3.63682684     -1.59511580     -1.57732575
H          -1.53752850     -2.42914585     -0.58099763


