21
Properties=species:S:1:pos:R:3:forces:R:3:charge:R:1 charge=0 spin=1 energy=-1091.094453569583 dipole="-0.6922444781027065 -0.45716783125941185 0.5891664650808957" pbc="F F F"
C       -1.63459000       1.21757000       1.08147000       0.00022531       0.00006384       0.00022806      -0.06802551
N       -1.86067000       0.04285000       0.27200000       0.00003061      -0.00013835      -0.00047197      -0.07475410
C       -3.22302000      -0.44370000       0.22939000       0.00024232      -0.00014821       0.00021463      -0.05297191
C       -0.93721000      -0.57105000      -0.47533000      -0.00006886       0.00011507       0.00028468       0.24753932
O       -1.12032000      -1.60866000      -1.09795000      -0.00001111      -0.00002105       0.00002785      -0.45457920
C        0.47578000       0.02670000      -0.55376000      -0.00012595      -0.00024905       0.00026304       0.04870990
O        1.25955000      -0.72479000      -1.41245000       0.00003069      -0.00011356      -0.00022762      -0.39282677
C        0.53804000       1.43088000      -0.78400000      -0.00005365      -0.00001971       0.00010430       0.10257868
N        0.60371000       2.56217000      -0.95947000      -0.00004080       0.00014521      -0.00004288      -0.22509451
N        2.26760000       0.18478000       0.77703000      -0.00002623       0.00142132      -0.00061013       0.15974715
O        2.98465000      -0.52066000       0.22366000       0.00003459      -0.00072136       0.00036291      -0.11033010
O        1.15768000      -0.74318000       1.88883000       0.00022065      -0.00081718       0.00031950      -0.53508118
H       -0.62808000       1.22903000       1.49564000      -0.00010090       0.00003311      -0.00006610       0.07720962
H       -2.34342000       1.19914000       1.90875000       0.00006894      -0.00005727      -0.00007890       0.07558733
H       -1.79063000       2.13391000       0.50717000      -0.00004624       0.00025479      -0.00012826       0.06893432
H       -3.54038000      -0.75748000       1.22541000      -0.00001900      -0.00010043      -0.00003861       0.05934114
H       -3.88979000       0.34222000      -0.12909000      -0.00011091       0.00008847       0.00000136       0.06002541
H       -3.26784000      -1.29447000      -0.44719000      -0.00003990       0.00007162      -0.00009176       0.09065807
H        0.72641000      -1.51112000      -1.65317000       0.00003452       0.00015987       0.00007017       0.33267217
H        0.67435000      -0.38367000       0.77488000      -0.00010519       0.00015912      -0.00025608       0.29512802
H        1.41846000      -1.67012000       1.88726000      -0.00013890      -0.00012624       0.00013580       0.29553215
