31
Properties=species:S:1:pos:R:3:forces:R:3:charge:R:1 charge=0 spin=1 energy=-1317.6775678179315 dipole="0.43125642562210564 -0.438605346515421 0.6800677401595668" pbc="F F F"
C       -0.41894000      -0.58795000      -0.78330000       0.00007305       0.00011658      -0.00014167      -0.04203872
C        0.29912000       0.31871000       0.62429000       0.00006675      -0.00014047       0.00005337       0.05520428
C       -0.15484000       1.65476000       0.43970000       0.00016684       0.00041818      -0.00018437      -0.08170279
C       -1.50092000       1.94260000       0.61204000      -0.00001036      -0.00014932       0.00001824       0.05982935
C       -2.03865000       3.29582000       0.27068000       0.00000176       0.00017911      -0.00016913      -0.10917252
N        1.69832000       0.04506000       0.60606000       0.00002320      -0.00018570       0.00005095      -0.09086736
C        2.18442000      -0.86250000       1.62322000       0.00019716       0.00008958      -0.00038407      -0.05370061
C        2.48695000       0.48832000      -0.40116000      -0.00001855       0.00001476       0.00000692       0.39885092
O        2.12220000       1.15400000      -1.33989000       0.00000030       0.00004846      -0.00007794      -0.46418185
O        3.78305000       0.11115000      -0.26543000      -0.00007439      -0.00010434       0.00017192      -0.41221355
C        0.03727000      -1.95208000      -0.70120000       0.00013779       0.00030164      -0.00004314      -0.03428854
C       -0.74181000      -2.92349000      -0.16040000      -0.00029356      -0.00040334       0.00017882      -0.03908131
C       -2.06860000      -2.63910000       0.22922000      -0.00006253      -0.00039303       0.00006231      -0.02934244
C       -2.59108000      -1.38964000       0.06934000      -0.00006184       0.00017163       0.00000056      -0.06038213
C       -1.83693000      -0.34479000      -0.52965000       0.00006414       0.00021028       0.00018168       0.17802431
O       -2.29611000       0.83330000      -0.66152000      -0.00014762      -0.00001122      -0.00006351      -0.38238048
H        0.02421000       0.00264000      -1.57898000      -0.00001231      -0.00010825       0.00017376       0.07969523
H       -0.15633000      -0.20992000       1.45971000      -0.00007047      -0.00005500      -0.00002867       0.05036207
H        0.42507000       2.28696000      -0.21501000      -0.00012841      -0.00013344       0.00018169       0.06870850
H       -2.02658000       1.44199000       1.41986000      -0.00004516      -0.00008224      -0.00004198       0.04618914
H       -3.08670000       3.21579000      -0.00302000      -0.00004501      -0.00003885       0.00001564       0.07045738
H       -1.48874000       3.72857000      -0.55961000      -0.00001135      -0.00000851       0.00000695       0.06063149
H       -1.95487000       3.95180000       1.13678000       0.00002264      -0.00000612       0.00007374       0.05134634
H        3.24903000      -1.02460000       1.48699000      -0.00000705       0.00007620      -0.00003544       0.08750684
H        1.66203000      -1.81981000       1.55088000      -0.00004302      -0.00003365       0.00005336       0.05741061
H        2.01229000      -0.43495000       2.61266000      -0.00004391       0.00003678       0.00013362       0.05715717
H        4.28022000       0.48193000      -1.00834000       0.00003051      -0.00000032      -0.00001127       0.33279724
H        1.03378000      -2.17869000      -1.05462000       0.00013450      -0.00005669      -0.00008346       0.03054375
H       -0.37419000      -3.93544000      -0.06908000      -0.00004528       0.00014427      -0.00002359       0.03234269
H       -2.67600000      -3.43438000       0.63694000       0.00012834       0.00014145      -0.00005660       0.03543844
H       -3.62050000      -1.17900000       0.32044000       0.00007387      -0.00003844      -0.00001873       0.04685656
