15
Properties=species:S:1:pos:R:3:forces:R:3:charge:R:1 charge=0 spin=1 energy=-927.6542129963831 dipole="0.05271743796431867 0.08693371304598635 -0.027376150496630152" pbc="F F F"
O       -2.77356000       1.19148000      -0.06457000      -0.00019967       0.00093667      -0.00023375      -0.17952298
N       -2.63168000       0.04260000      -0.09936000      -0.00009563      -0.00093923       0.00019965       0.15091873
C       -0.99922000      -0.52784000      -0.97408000      -0.00100031      -0.00009487       0.00012931      -0.21346458
S        0.78865000      -1.07041000      -0.71791000       0.00045090      -0.00014441       0.00025585       0.50569328
O        0.74569000      -2.27111000       0.09604000      -0.00080472       0.00042715      -0.00040385      -0.45624243
C        1.24629000       0.30592000       0.50929000      -0.00013343      -0.00002723       0.00056081       0.13942838
O        2.56406000       0.07470000       0.76508000       0.00013559       0.00014478      -0.00014570      -0.38853037
Cl       0.98652000       1.92037000      -0.26246000      -0.00006427      -0.00008010      -0.00002733      -0.21015690
O       -1.80456000      -0.54097000       1.41473000      -0.00060473      -0.00102376      -0.00037826      -0.54981282
H       -1.44913000      -1.31294000      -1.57631000       0.00004525       0.00000843      -0.00002423       0.08866371
H       -0.88266000       0.38377000      -1.55051000       0.00025762      -0.00008424      -0.00018267       0.08934354
H        0.59388000       0.25755000       1.38786000       0.00009279       0.00007965       0.00000703       0.08100430
H        2.88912000       0.58554000       1.51832000      -0.00004843      -0.00008790       0.00005487       0.32306204
H       -1.15386000      -0.70493000       0.31222000       0.00180614       0.00024419      -0.00050734       0.32234411
H       -2.30020000      -1.32817000       1.65078000       0.00016291       0.00064087       0.00069559       0.29727200
