13
Properties=species:S:1:pos:R:3:forces:R:3:charge:R:1 charge=0 spin=1 energy=-626.0634129706559 dipole="0.09912240668742328 0.6537735343784288 0.4736106663460935" pbc="F F F"
N        2.73979485      -1.22074442      -0.29573470       0.00137211      -0.00044755      -0.00036395      -0.16401589
C        1.70954789      -0.84916938       0.05431240      -0.00146465       0.00053642       0.00036543       0.13498231
C        0.49119242      -0.41219003       0.57604212       0.00034469      -0.00002250      -0.00021043       0.07954197
C        0.34929703       0.99059398       1.10950802      -0.00012705       0.00012675       0.00012770      -0.06719926
C        0.32810164       1.72188992      -0.23496557       0.00016514      -0.00014970       0.00023297       0.07330141
O        0.04731420       0.64868454      -1.13935547       0.00028261       0.00005285      -0.00048851      -0.35242797
Cl      -2.18922995      -0.67630199      -0.01804660       0.00004274      -0.00005844       0.00005697      -0.53032358
H       -0.18442391      -1.19034311       0.89892958      -0.00022821      -0.00012886       0.00021937       0.15398444
H       -0.59438624       1.08734433       1.64062406       0.00007411      -0.00006716      -0.00002724       0.09426717
H        1.17543072       1.26532549       1.76773841      -0.00002437      -0.00002947       0.00006862       0.08174259
H        1.31031016       2.11126002      -0.51053154       0.00020734      -0.00002884      -0.00004508       0.07304841
H       -0.41586789       2.51689588      -0.31476817      -0.00026176       0.00029976      -0.00004377       0.05877962
H       -0.90440092       0.35638478      -1.02428252      -0.00038269      -0.00008326       0.00010791       0.36431879
