19
Properties=species:S:1:pos:R:3:forces:R:3:charge:R:1 charge=0 spin=1 energy=-857.4049485914992 dipole="1.0851234575386894 -0.8489533817419037 0.2523970413406545" pbc="F F F"
O       -0.17281000       0.75973000       1.29460000      -0.00000449       0.00009804       0.00026904      -0.50847589
C        0.76334000      -0.47123000      -0.18306000       0.00050171      -0.00008545      -0.00012178       0.07699050
N        1.95467000      -0.72143000       0.24703000      -0.00046802       0.00024591      -0.00034672      -0.01882314
C        3.17143000      -0.33730000      -0.41890000      -0.00001931       0.00003783       0.00009420      -0.07438011
C       -0.42658000      -0.46327000       0.71382000       0.00000666      -0.00024219      -0.00007422       0.11013297
F        0.39165000       2.01784000      -0.62067000       0.00004303       0.00016001      -0.00022244      -0.65663454
C       -1.73050000      -0.59828000      -0.09832000       0.00018855       0.00068172       0.00041080       0.22817216
C       -2.53114000       0.65115000      -0.20068000      -0.00018898      -0.00012317      -0.00002679      -0.14234536
O       -2.00206000      -1.65599000      -0.61034000      -0.00015655      -0.00058382      -0.00039410      -0.36457017
H        0.04845000       1.51963000       0.42926000       0.00002299      -0.00009512       0.00014427       0.38824884
H        0.66336000      -0.02902000      -1.16737000       0.00002772      -0.00009835       0.00019435       0.14529645
H        2.05947000      -1.07298000       1.19547000      -0.00001544      -0.00006254       0.00022499       0.21035658
H        3.81792000      -1.20582000      -0.54609000       0.00007801      -0.00007161      -0.00001092       0.08161321
H        3.69542000       0.41095000       0.17744000      -0.00005286      -0.00006025      -0.00007271       0.09790191
H        2.93653000       0.09434000      -1.38902000      -0.00001186       0.00005223      -0.00003491       0.10280751
H       -0.40064000      -1.26358000       1.46971000       0.00001524       0.00005472       0.00003371       0.04646250
H       -1.93977000       1.38949000      -0.74412000       0.00003960       0.00003463      -0.00008350       0.11946262
H       -2.69829000       1.05703000       0.79503000       0.00006198       0.00005179       0.00005734       0.08977704
H       -3.47036000       0.47312000      -0.71472000      -0.00006800       0.00000563      -0.00004062       0.06800692
