21
Properties=species:S:1:pos:R:3:forces:R:3:charge:R:1 charge=0 spin=1 energy=-1228.8595117749203 dipole="-1.0034063631578596 0.44142147821218436 0.36841871170770624" pbc="F F F"
C       -3.53374000       0.70568000       0.28926000       0.00017757       0.00011273       0.00032542      -0.17910482
S       -2.31845000      -0.66805000       0.03692000      -0.00017691      -0.00031759      -0.00005642       1.13310288
O       -2.19562000      -0.91286000      -1.36200000      -0.00002123      -0.00007720       0.00020122      -0.48931264
O       -2.90450000      -1.67919000       0.87685000       0.00015977       0.00021511      -0.00025851      -0.53305194
C       -0.31622000      -1.54358000       0.69834000       0.00009038       0.00010711       0.00010620      -0.11700765
C        0.70494000      -0.63181000       0.60886000      -0.00016207      -0.00012980       0.00003170      -0.01210562
Br      -0.63983000       1.51788000      -0.01313000       0.00004826       0.00005776       0.00004700      -0.37739765
C        1.45974000      -0.47693000      -0.65611000       0.00011188      -0.00019300      -0.00021505       0.24957230
O        1.20619000      -1.07563000      -1.66505000      -0.00006217       0.00003142       0.00007388      -0.29647214
C        2.65232000       0.49217000      -0.58137000      -0.00014095       0.00025628       0.00029292      -0.10242441
N        3.68372000      -0.06814000       0.31574000       0.00058501      -0.00031244      -0.00041548       0.56337154
O        3.42322000      -0.09698000       1.49456000      -0.00009652       0.00004668       0.00023241      -0.38069239
O        4.69532000      -0.47098000      -0.19220000      -0.00037173       0.00018174       0.00018885      -0.35182525
H       -3.35455000       1.12980000       1.26879000      -0.00009618      -0.00008963      -0.00012760       0.11069115
H       -4.51130000       0.23945000       0.23894000      -0.00005432      -0.00001398       0.00000180       0.11357466
H       -3.37521000       1.42391000      -0.50540000      -0.00004019       0.00006896      -0.00012905       0.11966242
H       -0.67911000      -1.84160000       1.66687000       0.00011872       0.00001560      -0.00020141       0.08895604
H       -0.44958000      -2.24417000      -0.11208000      -0.00003136       0.00009886       0.00010078       0.10416238
H        1.07751000      -0.11229000       1.48096000      -0.00006494       0.00003190      -0.00002717       0.11306066
H        2.31461000       1.44671000      -0.17304000      -0.00000615      -0.00003773      -0.00002894       0.12494433
H        3.08172000       0.61029000      -1.57781000       0.00003311      -0.00005277      -0.00014252       0.11829614
