19
Properties=species:S:1:pos:R:3:forces:R:3:charge:R:1 charge=0 spin=1 energy=-856.9040031890252 dipole="1.468958788169573 0.4679827372353561 0.07007451911849481" pbc="F F F"
C        1.18639000      -0.59667000      -0.50464000      -0.00039878       0.00005502       0.00022967       0.05079804
N        1.98261000       0.33858000      -0.00838000       0.00088818       0.00061500      -0.00048295      -0.08446357
C        3.07216000       0.04962000       0.88779000      -0.00018154       0.00030676       0.00015475      -0.06164942
C       -0.08520000      -0.23014000      -1.14117000      -0.00158568      -0.00051574       0.00133208       0.08702750
F       -0.17654000       1.11944000      -1.38098000       0.00075068      -0.00042579       0.00011626      -0.24574793
C       -0.89114000      -0.75418000       0.20380000       0.00057880      -0.00017855      -0.00231555       0.33679859
O       -1.70534000      -1.66558000       0.02148000       0.00019277       0.00016035       0.00016271      -0.53323510
O       -1.12355000       0.38479000       0.99103000       0.00009954       0.00017492       0.00027366      -0.34064565
C       -2.37860000       0.98239000       0.70883000      -0.00010711      -0.00007897      -0.00037528       0.04554668
H        0.14392000      -1.14683000       0.77996000       0.00000267       0.00023653       0.00050365      -0.01270490
H        1.58403000      -1.58852000      -0.66340000       0.00014730      -0.00024051      -0.00025668       0.09179047
H        1.57290000       1.26308000       0.07446000      -0.00015668      -0.00014719       0.00029501       0.21454663
H        3.54069000      -0.89041000       0.60096000       0.00002183      -0.00013421      -0.00007800       0.07476370
H        3.80797000       0.84925000       0.82763000      -0.00004691      -0.00008011      -0.00003492       0.07714567
H        2.72107000      -0.03329000       1.92064000      -0.00000992       0.00001464       0.00012883       0.07266364
H       -0.37312000      -0.77211000      -2.03850000      -0.00019401       0.00017131      -0.00000919       0.07224090
H       -3.16130000       0.22036000       0.71340000      -0.00000982       0.00003565       0.00005194       0.05653942
H       -2.36898000       1.48897000      -0.26027000       0.00001718      -0.00002964       0.00023779       0.04328095
H       -2.54718000       1.70465000       1.50486000      -0.00000850       0.00006053       0.00006624       0.05530440
