27
Properties=species:S:1:pos:R:3:forces:R:3:charge:R:1 charge=0 spin=1 energy=-1171.8256373548636 dipole="0.7629046397829125 -0.36576642668728054 -0.01299389044196224" pbc="F F F"
C        2.65852000      -0.66653000       0.32411000      -0.00098918       0.00001755      -0.00073602       0.04940923
N        3.39848000       0.43194000       0.31537000       0.00072396       0.00110121      -0.00009803      -0.12296914
C        4.62450000       0.49507000      -0.44943000      -0.00010789       0.00011156       0.00019747      -0.05544303
C        1.27441000      -0.55439000       0.90741000       0.00044647      -0.00079609       0.00034675       0.07239289
O        0.65971000      -1.77669000       1.15387000      -0.00033317       0.00034850      -0.00007815      -0.43384632
C        0.85298000       0.15008000      -0.43657000      -0.00006586       0.00090630       0.00135405       0.33144585
O        1.11892000       1.37350000      -0.51078000       0.00001722      -0.00035359      -0.00004726      -0.56625839
O       -0.27023000      -0.45695000      -1.00184000      -0.00078511      -0.00009678      -0.00051550      -0.31262554
C       -1.50167000      -0.09076000      -0.49049000       0.00015140      -0.00006928      -0.00001508       0.14933827
C       -2.57826000      -0.86995000      -0.90424000       0.00026907      -0.00007078      -0.00007892      -0.05325890
C       -3.85003000      -0.57594000      -0.45412000      -0.00032251       0.00010895       0.00015614      -0.02918137
C       -4.05685000       0.48528000       0.41236000       0.00008514      -0.00017581      -0.00016655      -0.03874772
C       -2.98290000       1.25714000       0.81679000      -0.00019271       0.00007505       0.00004203      -0.02815034
C       -1.70243000       0.97640000       0.37094000       0.00021196      -0.00008262      -0.00009623      -0.05508691
H        1.76856000      -0.53913000      -1.09939000       0.00047899      -0.00085478       0.00001982      -0.02629812
H        3.11115000      -1.63869000       0.17967000       0.00010256      -0.00048417       0.00004728       0.08910792
H        2.78417000       1.26648000       0.21417000       0.00054060       0.00012747       0.00027994       0.24010645
H        5.20352000      -0.41428000      -0.29478000      -0.00003443       0.00003029       0.00006387       0.06723650
H        5.20367000       1.35105000      -0.11026000      -0.00009466       0.00001456      -0.00001106       0.07613767
H        4.41818000       0.60876000      -1.51744000      -0.00006971      -0.00009221      -0.00024535       0.06598743
H        1.21081000       0.08699000       1.78774000      -0.00005461       0.00006548      -0.00030462       0.05642792
H        0.15428000      -2.02447000       0.36391000       0.00014204       0.00002024      -0.00010597       0.30875841
H       -2.39981000      -1.69060000      -1.58193000      -0.00000900       0.00000169      -0.00002953       0.04357908
H       -4.68284000      -1.18134000      -0.77999000       0.00004396       0.00007287       0.00002418       0.03785449
H       -5.05171000       0.71021000       0.76605000      -0.00011122       0.00002115       0.00004663       0.03547033
H       -3.13636000       2.09062000       1.48598000       0.00002238       0.00000235       0.00000906       0.03894857
H       -0.86979000       1.59362000       0.66801000      -0.00006568       0.00005089      -0.00005896       0.05966475
