25
Properties=species:S:1:pos:R:3:forces:R:3:charge:R:1 charge=0 spin=1 energy=-1146.663059964572 dipole="-0.024521462444284905 0.6236024223093373 0.5501492751529528" pbc="F F F"
C       -3.03624000       0.35934000       0.52952000       0.00011108      -0.00012321       0.00005872      -0.02796010
N       -2.77177000      -1.05194000       0.32299000      -0.00003182       0.00005717       0.00002228      -0.19137392
N       -1.76558000      -1.36065000      -0.62420000      -0.00038355      -0.00011815       0.00003861      -0.19567986
C       -0.47472000      -1.59787000      -0.00426000       0.00021883       0.00013155       0.00014295       0.00563680
C        0.24401000      -0.40699000       0.60182000      -0.00002828      -0.00004929       0.00005102      -0.14410255
N        2.16541000      -0.53904000      -0.35619000      -0.00000624       0.00000988       0.00017377       0.13595485
O        2.06957000      -1.34155000      -1.17698000      -0.00001058      -0.00005389      -0.00005669      -0.13873410
C        0.16710000       0.86020000      -0.16440000       0.00006852       0.00018524       0.00002307       0.35644067
O       -0.15516000       0.98725000      -1.32090000       0.00000739      -0.00000287       0.00004454      -0.43038720
O        0.54015000       1.90296000       0.61199000      -0.00000309      -0.00014126      -0.00007280      -0.28605915
C        0.57504000       3.16817000      -0.02891000      -0.00035170      -0.00004685      -0.00024834       0.03566324
O        2.60599000      -1.30051000       1.22873000       0.00017621       0.00016894       0.00005258      -0.52995093
H       -2.20002000       0.81178000       1.06499000      -0.00004215       0.00004336      -0.00003870       0.03463830
H       -3.93022000       0.45754000       1.14204000      -0.00005699      -0.00003385       0.00003827       0.03958129
H       -3.18377000       0.91205000      -0.41021000       0.00002127       0.00003610      -0.00006327       0.01812908
H       -3.62033000      -1.51944000       0.01158000       0.00000570       0.00000830      -0.00001865       0.14180316
H       -1.67893000      -0.64581000      -1.34937000       0.00004048       0.00012747      -0.00018386       0.15080815
H        0.15646000      -2.01832000      -0.80640000       0.00005935      -0.00004476      -0.00006949       0.07657417
H       -0.62131000      -2.36635000       0.75755000      -0.00002533      -0.00008457       0.00003716       0.05928777
H       -0.00279000      -0.20234000       1.64875000       0.00003241      -0.00000687      -0.00002114       0.08553806
H        1.26088000       3.14356000      -0.87797000       0.00001448      -0.00004397      -0.00003688       0.06069690
H       -0.41941000       3.44065000      -0.38904000       0.00020338      -0.00005271       0.00004857       0.05912363
H        0.91667000       3.87875000       0.71904000       0.00008201       0.00015494       0.00020640       0.06413214
H        3.17553000      -0.63560000       1.62355000      -0.00015362      -0.00015439      -0.00009705       0.29835618
H        1.41536000      -0.87741000       1.12186000       0.00005226       0.00003371      -0.00003106       0.32188341
