27
Properties=species:S:1:pos:R:3:forces:R:3:charge:R:1 charge=0 spin=1 energy=-1399.870738403675 dipole="-0.4611740337132933 -0.33212885250538465 -0.1024578249803657" pbc="F F F"
O       -6.36251000      -0.77772000       1.06935000      -0.00003709      -0.00012128       0.00021723      -0.27133553
N       -5.43221000      -1.03966000       0.11877000       0.00005718      -0.00014131       0.00006646       0.02581833
O       -5.63897000      -0.20766000      -0.90351000       0.00001868       0.00011924      -0.00008511      -0.26973376
C       -3.12102000       0.37121000      -0.03006000      -0.00007298       0.00006456      -0.00001355      -0.15568695
C       -1.80546000       0.89119000       0.11016000      -0.00010036       0.00017701       0.00012975       0.34142169
O       -1.51718000       2.00537000       0.50460000      -0.00000684       0.00001279       0.00000267      -0.43578578
O       -0.89259000      -0.04519000      -0.31523000      -0.00001381      -0.00023592      -0.00009607      -0.26527587
C        0.46518000       0.11959000      -0.33435000       0.00041001       0.00004553      -0.00003486       0.15122184
C        1.17613000      -0.99086000      -0.79697000      -0.00006758       0.00015224       0.00005298      -0.04933449
C        2.55156000      -0.95722000      -0.86832000      -0.00009272       0.00010844       0.00003247      -0.03164126
C        3.25039000       0.18250000      -0.48348000       0.00017266      -0.00018186      -0.00002791      -0.00254334
C        4.75686000       0.19762000      -0.48567000      -0.00016592       0.00012694      -0.00013597      -0.00142061
N        5.34737000      -0.18001000       0.78664000      -0.00010218       0.00002818       0.00031028      -0.09400522
F        5.07016000      -1.54696000       1.03599000       0.00000850       0.00005899       0.00000834      -0.19552401
C        2.53680000       1.27898000      -0.01682000      -0.00021268      -0.00008128      -0.00001189      -0.03923282
C        1.15628000       1.26233000       0.05760000       0.00009132      -0.00025141      -0.00005223      -0.05497419
H       -6.22841000      -1.43470000       1.76757000      -0.00002716       0.00013755      -0.00015098       0.33282157
H       -4.75275000       0.03561000      -1.26589000       0.00000210       0.00000593      -0.00003141       0.34076959
H       -3.22405000      -0.65587000      -0.32275000      -0.00000759      -0.00005114       0.00000320       0.07753112
H       -3.91210000       0.97174000       0.37381000       0.00004238      -0.00003728      -0.00004191       0.08126720
H        0.62552000      -1.86999000      -1.09297000       0.00001711      -0.00002197      -0.00001403       0.05251052
H        3.09236000      -1.82336000      -1.21970000      -0.00000696       0.00002532       0.00002560       0.04930720
H        5.15824000      -0.48541000      -1.23790000       0.00001241      -0.00005246      -0.00001240       0.06691409
H        5.13877000       1.20305000      -0.68056000       0.00000271       0.00001412       0.00001903       0.06099354
H        4.86688000       0.29308000       1.55651000       0.00012905      -0.00014590      -0.00021608       0.16404346
H        3.06654000       2.17039000       0.28971000       0.00003603       0.00008381       0.00001491       0.03824628
H        0.62118000       2.12528000       0.41611000      -0.00008625       0.00016117       0.00004146       0.08362739
