16
Properties=species:S:1:pos:R:3:forces:R:3:charge:R:1 charge=0 spin=1 energy=-731.1638641063371 dipole="0.7615757039599748 0.5310164591377526 0.30562881064666336" pbc="F F F"
C       -1.34727000       1.53896000      -0.05006000      -0.00084685       0.00045152       0.00159181      -0.03218466
C       -1.25117000       0.65392000       1.04798000       0.00016116       0.00065854      -0.00110519      -0.08694083
C       -1.11983000      -0.50284000      -0.24402000       0.00097450      -0.00053779      -0.00073309       0.22568622
O       -2.11602000      -1.23167000      -0.33575000      -0.00027996      -0.00038280       0.00043817      -0.49471639
C        0.30656000      -1.05292000      -0.07226000      -0.00075410       0.00061625       0.00087912      -0.10178862
C        1.42603000      -0.05409000      -0.17433000      -0.00034556       0.00038748      -0.00141249       0.36160555
O        1.43589000       0.93365000      -0.86005000       0.00097042      -0.00071962       0.00030339      -0.41269241
O        2.45900000      -0.40363000       0.59700000      -0.00031579      -0.00074228       0.00063149      -0.36890415
H       -1.00059000       0.26832000      -1.15507000       0.00033683      -0.00017874      -0.00170688       0.05935812
H       -2.31393000       1.78902000      -0.45543000       0.00029506      -0.00009935       0.00053541       0.08984928
H       -0.50105000       2.12198000      -0.37532000      -0.00074274      -0.00010728       0.00048150       0.09598462
H       -0.36079000       0.68336000       1.65929000      -0.00033226       0.00070684       0.00036301       0.05183576
H       -2.15134000       0.40460000       1.58990000       0.00002936       0.00011226       0.00007167       0.08281842
H        0.37538000      -1.59473000       0.87155000       0.00002728      -0.00035717       0.00055667       0.09326263
H        0.43902000      -1.77754000      -0.88299000       0.00000364      -0.00043179      -0.00077140       0.10169823
H        3.19636000       0.21996000       0.49462000       0.00081899       0.00062392      -0.00012321       0.33512824
