25
Properties=species:S:1:pos:R:3:forces:R:3:charge:R:1 charge=0 spin=1 energy=-1147.6047387967121 dipole="-0.04397119383562802 -0.06602890005637142 0.04347018903227945" pbc="F F F"
C        1.68442000       2.00689000      -0.63657000      -0.00013716      -0.00008862      -0.00002146      -0.04460789
N        1.54008000       1.12435000       0.50598000       0.00004804      -0.00018646       0.00031706      -0.21528438
C        0.45049000       0.26794000       0.61654000       0.00004922       0.00017321       0.00015290       0.12910194
O        0.29445000      -0.22637000       1.90279000       0.00007809       0.00001667      -0.00026742      -0.40582622
N        1.47822000      -1.53265000      -0.03898000      -0.00013949      -0.00020185      -0.00013096       0.02225906
O        2.60136000      -1.12457000      -0.07222000       0.00023801      -0.00000084      -0.00006412      -0.29143191
C       -0.92439000       0.73798000       0.09441000       0.00019538      -0.00021445       0.00023553       0.25507301
O       -1.10027000       1.89747000      -0.23342000      -0.00002588       0.00060051      -0.00018076      -0.43071052
N       -1.88855000      -0.19143000       0.06033000       0.00000926      -0.00049264       0.00003477      -0.05735801
C       -1.72560000      -1.60349000       0.32463000      -0.00015189       0.00014418      -0.00019143      -0.08199679
C       -3.19465000       0.19238000      -0.42706000      -0.00017000       0.00001755       0.00021417      -0.05767726
O        0.64083000      -1.29378000      -1.65886000       0.00027933      -0.00039753      -0.00058664      -0.55140830
H        0.85210000       2.70540000      -0.64620000      -0.00001210       0.00005390      -0.00004498       0.09196569
H        2.61854000       2.55082000      -0.51722000       0.00017313       0.00009454       0.00002011       0.05387418
H        1.70476000       1.47367000      -1.59355000      -0.00000318      -0.00003755      -0.00009023       0.02950528
H        2.40892000       0.58083000       0.63569000      -0.00031197       0.00010287      -0.00002381       0.19733118
H        1.12590000      -0.13928000       2.38584000       0.00005010       0.00006544       0.00008841       0.31539421
H       -0.95204000      -1.77861000       1.06401000      -0.00000932       0.00001428      -0.00000179       0.09382921
H       -2.66779000      -1.99161000       0.70874000       0.00001043       0.00003094      -0.00004878       0.06665032
H       -1.46807000      -2.13688000      -0.59330000       0.00004443       0.00001380       0.00008687       0.07955620
H       -3.95075000       0.01037000       0.33857000       0.00000748       0.00006588      -0.00000285       0.05697305
H       -3.17805000       1.25181000      -0.67343000      -0.00000652      -0.00005865      -0.00005712       0.08948080
H       -3.44199000      -0.38567000      -1.31940000       0.00001525      -0.00004707      -0.00006191       0.05955762
H        0.50381000      -0.64050000      -0.56399000      -0.00016757       0.00036569       0.00059559       0.31410502
H        1.30379000      -0.93425000      -2.25518000      -0.00006305      -0.00003380       0.00002884       0.28164449
