30
Properties=species:S:1:pos:R:3:forces:R:3:charge:R:1 charge=0 spin=1 energy=-1285.8832317909537 dipole="0.235529090254952 0.6452498695969274 -0.10793422363680384" pbc="F F F"
C       -0.70366000       3.62769000      -0.08306000      -0.00013123       0.00019838      -0.00024508      -0.11390404
C       -1.53394000       2.36439000       0.05629000      -0.00019943      -0.00023083      -0.00017080       0.07921626
O       -0.66518000       1.25178000      -0.12202000       0.00024379       0.00044500      -0.00007862      -0.29627358
C       -1.23274000       0.00805000       0.02808000       0.00022137      -0.00092181       0.00061958       0.14836204
N       -2.56568000      -0.07140000       0.08577000      -0.00044482       0.00048708      -0.00021703      -0.13795341
C       -3.27382000      -1.21536000      -0.38037000      -0.00005317      -0.00026135       0.00011354      -0.03338971
S       -0.19939000      -1.17026000      -1.05810000       0.00001704       0.00025780      -0.00000138       0.39518297
O       -0.37993000      -2.52279000      -0.52593000      -0.00002568      -0.00008078       0.00004167      -0.47342076
C        1.38259000      -0.58868000      -0.39073000       0.00017054      -0.00024033      -0.00000432      -0.01675630
C        1.94969000      -1.26991000       0.66951000      -0.00019541       0.00035994      -0.00007456      -0.02539873
C        3.16083000      -0.83933000       1.18211000      -0.00015862      -0.00032557       0.00020683      -0.02587864
C        3.79157000       0.26249000       0.62703000      -0.00026670       0.00016782      -0.00041200      -0.02668106
C        3.21965000       0.93129000      -0.44424000       0.00028450       0.00004815       0.00013569      -0.02532894
C        2.01064000       0.50248000      -0.96373000       0.00003296      -0.00013480       0.00003294      -0.02798120
O       -2.27113000      -0.50405000       1.97734000      -0.00027744      -0.00017196      -0.00008838      -0.59729280
H       -1.33328000       4.49968000       0.06756000       0.00005304      -0.00007627      -0.00000941       0.05170758
H       -0.25833000       3.67665000      -1.07304000      -0.00001054      -0.00004392       0.00015624       0.05438120
H        0.09387000       3.63050000       0.65483000       0.00014500       0.00003560       0.00013207       0.05717557
H       -2.33144000       2.32341000      -0.69587000       0.00010046       0.00010267       0.00004160       0.04237967
H       -1.99835000       2.29867000       1.04587000       0.00003957      -0.00002050       0.00004474       0.05387274
H       -4.25779000      -1.21637000       0.08488000      -0.00005122       0.00000794      -0.00000838       0.07060937
H       -3.40023000      -1.09703000      -1.46154000      -0.00004996       0.00001175      -0.00009554       0.06525229
H       -2.76496000      -2.16195000      -0.19303000      -0.00003657      -0.00005227      -0.00008772       0.07159557
H        1.43775000      -2.13208000       1.07118000       0.00007105      -0.00000120      -0.00002048       0.06352679
H        3.61096000      -1.36191000       2.01281000      -0.00003813       0.00007459      -0.00009782       0.04278647
H        4.73586000       0.59955000       1.02831000       0.00018446       0.00008408       0.00008161       0.04023269
H        3.71906000       1.78553000      -0.87644000      -0.00006860      -0.00008875       0.00005321       0.04101826
H        1.55097000       1.01183000      -1.79588000      -0.00002307       0.00000927      -0.00001086       0.04619127
H       -1.04783000      -0.40661000       1.19809000       0.00043810       0.00047566      -0.00027679       0.24343074
H       -2.70116000      -0.72403000       2.82092000       0.00002868      -0.00011541       0.00023944       0.23333767
