25
Properties=species:S:1:pos:R:3:forces:R:3:charge:R:1 charge=0 spin=1 energy=-1223.1749080183533 dipole="-0.54148796268061 -0.03843334235757444 -0.14717726084822158" pbc="F F F"
C       -2.64697000      -0.65180000      -0.69642000      -0.00000483       0.00032861      -0.00032007      -0.05443784
N       -1.23030000      -0.53419000      -0.90455000      -0.00049436       0.00000611       0.00028979      -0.09601349
C       -0.34765000       0.25244000      -0.14597000       0.00010187      -0.00010493       0.00009867      -0.08681370
N        0.25583000      -1.98697000       0.70541000      -0.00040507      -0.00016810      -0.00027057       0.07889816
O       -0.62788000      -2.31110000       0.03252000       0.00050103       0.00019178       0.00042076      -0.11857580
C       -0.60552000       1.65195000       0.26932000       0.00006961      -0.00000017      -0.00017869       0.22476235
C       -1.89419000       2.28636000      -0.20719000       0.00016376       0.00016122      -0.00026162      -0.13637037
O        0.18725000       2.27318000       0.94271000       0.00001400      -0.00003525       0.00008544      -0.38333661
C        1.04432000      -0.00578000      -0.61816000       0.00011283       0.00024059       0.00002761       0.34493894
O        1.27833000      -0.58117000      -1.66281000      -0.00002118       0.00000882       0.00012021      -0.46220058
O        1.97948000       0.48076000       0.19917000      -0.00007136      -0.00022189      -0.00015843      -0.25163465
C        3.32061000       0.32823000      -0.23631000       0.00002362       0.00016340       0.00011744       0.03289834
O       -0.41915000      -1.07020000       2.11744000       0.00000183      -0.00012494      -0.00014295      -0.49892359
H       -3.22298000       0.05824000      -1.29587000       0.00007414      -0.00016571       0.00015065       0.05436616
H       -2.87063000      -0.50340000       0.35856000       0.00003684       0.00001410       0.00005337       0.07394529
H       -2.95419000      -1.66082000      -0.97313000       0.00001892      -0.00006643      -0.00001885       0.07530962
H       -0.87110000      -0.79292000      -1.81878000       0.00011194      -0.00001851      -0.00019064       0.19464433
H       -1.82855000       3.35619000      -0.02493000      -0.00001373      -0.00002586      -0.00002340       0.07257491
H       -2.04796000       2.10770000      -1.26776000       0.00000002      -0.00001252       0.00007792       0.05588460
H       -2.73918000       1.89290000       0.35168000      -0.00022668      -0.00011452       0.00017481       0.06787893
H        3.56815000      -0.73184000      -0.32714000      -0.00000716      -0.00000296      -0.00005936       0.06203449
H        3.46556000       0.80810000      -1.20628000      -0.00000782      -0.00008530       0.00003412       0.06165719
H        3.93779000       0.80488000       0.52036000      -0.00003326      -0.00002521      -0.00006270       0.07095328
H        0.36737000      -0.91938000       2.64949000       0.00000975       0.00001655       0.00005515       0.31311803
H       -0.39082000      -0.27176000       1.20387000       0.00004529       0.00004111      -0.00001866       0.30444200
