18
Properties=species:S:1:pos:R:3:forces:R:3:charge:R:1 charge=0 spin=1 energy=-1020.3376112855204 dipole="-0.04697942624111456 -0.3384845703126177 -0.09899668723201874" pbc="F F F"
O        0.72755756       1.54776071      -0.93149326       0.00032193      -0.00134631       0.00041531      -0.52802208
S        1.14631595       0.24728433      -0.49367976       0.00073729       0.00086949      -0.00044137       0.99194614
O        2.27045575      -0.35776786      -1.16121830      -0.00062724       0.00043201       0.00031347      -0.53977298
C        1.56388627       0.23182029       1.30325417      -0.00052514       0.00027815      -0.00012085      -0.00086228
O        2.23936880      -0.93820158       1.53967045      -0.00009916       0.00010227      -0.00005255      -0.39428478
C       -0.31207202      -0.90982914      -0.68787144      -0.00019592       0.00009451       0.00058526      -0.05837314
N       -1.25304858      -0.43429341       0.21211804      -0.00022685       0.00068450      -0.00034698      -0.12567178
C       -1.99655073       0.63941845      -0.09916047       0.00054122      -0.00023247      -0.00021110       0.15474221
F       -2.34928640       1.39571170       0.97106695      -0.00021202       0.00011869      -0.00020940      -0.21088570
O       -2.86952623      -1.46540408      -0.19567007       0.00058741       0.00117410       0.00000993      -0.58107145
H        2.15010208       1.13903687       1.48781327       0.00025155      -0.00023224      -0.00007479       0.07799769
H        0.62909531       0.23802745       1.86048949       0.00032981      -0.00011778      -0.00015508       0.10512316
H        2.92719512      -1.04290869       0.86314376      -0.00017984       0.00000150       0.00003943       0.32781203
H        0.04344296      -1.89862925      -0.41074210       0.00012891       0.00006342      -0.00016100       0.10072786
H       -0.56126657      -0.84078771      -1.75244926       0.00000389      -0.00012621      -0.00034766       0.07836777
H       -1.75903206       1.27958064      -0.95291924      -0.00018147      -0.00052503       0.00068156       0.07843449
H       -3.03636165      -0.07399882      -0.36636344       0.00010897       0.00015708       0.00017150       0.27405537
H       -3.29890555      -2.33582991      -0.16687878      -0.00076334      -0.00139566      -0.00009567       0.24973748
