20
Properties=species:S:1:pos:R:3:forces:R:3:charge:R:1 charge=0 spin=1 energy=-1165.7688561176547 dipole="-0.21890004443501132 0.14559320572773152 0.3358256567972063" pbc="F F F"
C        1.07065000       2.01354000      -0.67233000       0.00019775       0.00072428      -0.00015102      -0.12077079
C        0.91063000       1.14644000       0.53401000       0.00089084      -0.00038330       0.00055383      -0.07734268
C        1.78293000       0.09900000       0.77810000       0.00008995       0.00095838      -0.00028917       0.08416180
Cl       0.43260000      -1.59553000      -0.20379000      -0.00021478      -0.00042986      -0.00018686      -0.39591927
Br       3.33552000      -0.13925000      -0.21929000      -0.00000875      -0.00003422       0.00016760      -0.02701016
S       -1.13948000       0.20321000       0.39897000      -0.00086725      -0.00000825       0.00047711       1.11977049
O       -1.64124000       1.47149000      -0.07114000       0.00090674      -0.00008210       0.00079981      -0.54459553
O       -1.23786000      -0.10228000       1.79277000       0.00021749       0.00056756      -0.00132177      -0.51643695
C       -2.30184000      -0.96070000      -0.50973000      -0.00017955      -0.00055514       0.00061140      -0.15349473
C       -3.62672000      -0.25211000      -0.51477000       0.00033682      -0.00007762      -0.00069888       0.36826335
O       -4.17235000       0.17037000      -1.49339000      -0.00020676       0.00001374      -0.00004093      -0.36868211
O       -4.11396000      -0.14346000       0.71728000       0.00000694       0.00004951       0.00032517      -0.36208046
H        0.14578000       2.55230000      -0.85975000      -0.00026117      -0.00024345      -0.00025861       0.08581309
H        1.86919000       2.73973000      -0.51141000      -0.00012721      -0.00022001      -0.00010270       0.07953034
H        1.32094000       1.41878000      -1.54910000      -0.00031300      -0.00000200       0.00001574       0.06912014
H        0.47852000       1.61413000       1.40918000      -0.00020856      -0.00012496       0.00005360       0.09186675
H        1.79423000      -0.42660000       1.72136000       0.00010580      -0.00021966       0.00059567       0.09736798
H       -2.30687000      -1.87060000       0.08175000       0.00004902      -0.00002990      -0.00017107       0.11394510
H       -1.92350000      -1.10341000      -1.51635000      -0.00049839       0.00010082      -0.00036168       0.10649786
H       -4.93474000       0.37610000       0.72458000       0.00008408      -0.00000384      -0.00001722       0.34999579
