31
Properties=species:S:1:pos:R:3:forces:R:3:charge:R:1 charge=0 spin=1 energy=-1460.88116566272 dipole="0.7050031778381307 -0.34536147611326096 0.4595333345157311" pbc="F F F"
C       -4.98761000      -1.91386000       0.34021000      -0.00035026      -0.00016038       0.00019592      -0.03808531
N       -4.93767000      -0.69925000      -0.44691000      -0.00010051       0.00034895      -0.00036037      -0.11923519
O       -3.58347000      -0.27387000      -0.59401000       0.00012441      -0.00041536      -0.00005727      -0.18883515
C       -3.22604000       0.80627000       0.09430000       0.00033751      -0.00019731      -0.00040114       0.36292909
O       -3.97516000       1.43405000       0.79521000      -0.00040533       0.00048136       0.00052829      -0.39851984
C       -1.75909000       1.13044000      -0.14569000       0.00017305      -0.00021990       0.00050266      -0.01792259
N       -0.98847000       0.52841000       0.89711000       0.00067599       0.00012120      -0.00048117      -0.07980817
C        0.33175000       0.39214000       0.77945000      -0.00005885       0.00075517       0.00099650      -0.04165244
S        1.31236000       1.19451000      -0.60083000       0.00022743       0.00024929       0.00051197       0.37296140
O        0.84825000       0.63312000      -1.87156000      -0.00019880      -0.00014645      -0.00061298      -0.48144503
C        2.82111000       0.27900000      -0.16119000       0.00012352       0.00006114       0.00018397      -0.02491247
C        3.21236000      -0.78637000      -0.94927000      -0.00026590       0.00021096       0.00007946      -0.02584413
C        4.36474000      -1.48203000      -0.62774000       0.00022716      -0.00013913      -0.00003706      -0.02545978
C        5.11590000      -1.10075000       0.47241000      -0.00008442       0.00021265       0.00016361      -0.02678808
C        4.72250000      -0.02257000       1.25016000       0.00012884      -0.00005050       0.00006048      -0.02584590
C        3.57115000       0.67723000       0.93214000      -0.00008099      -0.00037666      -0.00042031      -0.03879970
O       -1.07217000      -1.34916000       0.46622000       0.00080442       0.00009670       0.00018458      -0.57614244
H       -6.03565000      -2.18232000       0.44778000       0.00025219       0.00005767      -0.00005417       0.06094731
H       -4.53411000      -1.80814000       1.33282000       0.00005481       0.00006270       0.00006660       0.03807693
H       -4.47304000      -2.69981000      -0.21125000       0.00003534      -0.00001795      -0.00005668       0.06084377
H       -5.40545000       0.06538000       0.05213000       0.00002944      -0.00011763       0.00010564       0.17787783
H       -1.63414000       2.21595000      -0.05128000      -0.00007440      -0.00008548      -0.00003216       0.09160962
H       -1.46039000       0.80999000      -1.14957000       0.00008017      -0.00005671      -0.00028865       0.09815120
H        0.86463000       0.42250000       1.72568000      -0.00020669      -0.00008623      -0.00023596       0.07831582
H        2.60753000      -1.04993000      -1.80439000      -0.00001810      -0.00003046      -0.00005070       0.06626424
H        4.67680000      -2.31796000      -1.23526000      -0.00001945      -0.00003764      -0.00002348       0.04433488
H        6.01585000      -1.64209000       0.72271000       0.00004385      -0.00004433       0.00000620       0.04198093
H        5.31552000       0.27542000       2.10164000      -0.00004849      -0.00003848      -0.00007883       0.04223041
H        3.25914000       1.52587000       1.52289000      -0.00006963       0.00024097       0.00017355       0.03832545
H        0.20474000      -0.86125000       0.46271000      -0.00121313      -0.00047793      -0.00069726       0.28694923
H       -1.65650000      -2.10008000       0.26971000      -0.00012319      -0.00020024       0.00012875       0.24749811
