15
Properties=species:S:1:pos:R:3:forces:R:3:charge:R:1 charge=0 spin=1 energy=-969.8504888559453 dipole="-0.18185446902076555 0.5999415302024226 0.4689842026407317" pbc="F F F"
O       -2.52017000      -1.04580000      -0.90023000       0.00018370      -0.00006760       0.00002963      -0.44000653
N       -1.88916000       0.05981000      -0.52031000       0.00011287       0.00006598       0.00001744       0.09803130
N       -0.85132000      -0.20503000       0.19532000       0.00000920      -0.00054114      -0.00051077      -0.02664965
C       -0.00017000       0.87436000       0.61717000       0.00009728       0.00051206       0.00073216      -0.03899480
C        1.37135000       0.83989000      -0.01120000      -0.00064096      -0.00017854      -0.00137298       0.23133199
O        1.98191000       1.70843000      -0.52594000       0.00008907      -0.00014914       0.00063694      -0.21240430
N        2.05269000      -0.54777000       0.10983000       0.00069247       0.00032520      -0.00019837       0.51103829
O        3.04446000      -0.70117000      -0.54175000      -0.00027357       0.00001397       0.00018599      -0.29785046
O        1.52911000      -1.33596000       0.86110000      -0.00030041      -0.00035420       0.00027386      -0.35330583
O       -3.41361000       0.42750000       0.52501000       0.00014290      -0.00030031       0.00004044      -0.59841186
H       -0.72297000      -1.13550000       0.60223000       0.00005752       0.00011450       0.00001609       0.20528383
H        0.13561000       0.84614000       1.70644000       0.00010311       0.00023847       0.00004235       0.12125835
H       -0.48502000       1.81428000       0.33796000      -0.00001882      -0.00007183       0.00009259       0.12764177
H       -3.46246000      -0.58906000      -0.29932000      -0.00013802       0.00023203       0.00010120       0.40144071
H       -3.85123000       1.20558000       0.17738000      -0.00011635       0.00016055      -0.00008658       0.27159719
