24
Properties=species:S:1:pos:R:3:forces:R:3:charge:R:1 charge=0 spin=1 energy=-1403.4960673137134 dipole="-1.683380119356229 0.009595792904615758 -0.5542719557393138" pbc="F F F"
C        2.65726275      -0.87717831      -1.25843269       0.00010429      -0.00001194      -0.00003730      -0.14841652
C        3.43034273      -0.48622214      -0.04026154      -0.00011794       0.00009513      -0.00008265       0.23912534
O        4.51945623      -0.91428617       0.24266590      -0.00003265      -0.00002298      -0.00002600      -0.34438890
C        2.76583707       0.57311010       0.84001326       0.00004427       0.00000634      -0.00010128       0.04793050
O        1.34789697       0.51764199       0.84650581      -0.00016010       0.00018784       0.00004815      -0.29021590
C        0.69557228       1.31767460      -0.00951449       0.00003385       0.00029553      -0.00029295       0.50359749
O        1.23053059       2.08326197      -0.76554582      -0.00019741      -0.00031248       0.00031568      -0.45531131
O       -0.59693579       1.16421669       0.09938305       0.00001694      -0.00013308      -0.00016255      -0.58303134
S       -1.55262016      -0.65331539       0.20946467       0.00004385      -0.00023561      -0.00055285       1.71279728
O       -0.44705596      -1.23313423      -0.46880187      -0.00042916       0.00013327       0.00015627      -0.61518498
O       -1.77513820      -0.43161347       1.58484909       0.00000925       0.00001329       0.00032637      -0.57096283
O       -2.72941557      -1.71991603      -0.12920161       0.00034024      -0.00010304       0.00000015      -0.60302066
O       -2.51797208       0.53634410      -0.85419619       0.00023180       0.00021132       0.00013878      -0.38880489
C       -3.68737667       0.99095562      -0.17508079       0.00008034      -0.00006478      -0.00005832      -0.00900266
H        3.20067663      -1.62901315      -1.82393504       0.00000874       0.00001269       0.00005088       0.07486369
H        2.49579494       0.00858668      -1.87155302       0.00001767      -0.00007756       0.00005347       0.08483383
H        1.67661209      -1.25342706      -0.96655692      -0.00003525      -0.00000575       0.00007715       0.09578052
H        3.09459789       0.44967149       1.87444411      -0.00007202      -0.00001898      -0.00009303       0.08799534
H        3.09220436       1.55438492       0.46621493      -0.00006159      -0.00004422       0.00001893       0.09116093
H       -2.49336196      -2.30433773      -0.85244589      -0.00002298       0.00005733       0.00005416       0.35650626
H       -1.70123034       1.21918308      -0.73041706      -0.00000172      -0.00002898       0.00025745       0.40714044
H       -4.08558803       1.84599859      -0.72159662       0.00011595      -0.00002495      -0.00002750       0.10723018
H       -4.40702631       0.17314074      -0.17118451       0.00006174       0.00012171      -0.00008739       0.10533160
H       -3.44719345       1.26585311       0.85223322       0.00002189      -0.00005012       0.00002438       0.09404657
