27
Properties=species:S:1:pos:R:3:forces:R:3:charge:R:1 charge=0 spin=1 energy=-1586.7525073950894 dipole="-0.1828157188295378 -0.265631276099181 0.595496227212984" pbc="F F F"
O       -0.29718000      -1.22048000       1.37263000      -0.00023927       0.00032231       0.00001500      -0.47467476
N        0.48385000      -0.15341000       1.21736000      -0.00001683      -0.00038343       0.00031234       0.03344586
C        1.14750000      -0.10817000      -0.00448000       0.00066632       0.00021072      -0.00048720       0.00266183
C        1.27132000      -1.39866000      -0.79939000       0.00006659       0.00016855       0.00030134       0.37019343
O        0.68159000      -1.56623000      -1.83384000      -0.00011170       0.00001967      -0.00012430      -0.40066146
O        2.06057000      -2.28361000      -0.22734000       0.00004137      -0.00043974       0.00008774      -0.33086395
C        2.39093000       0.73860000      -0.01584000       0.00014888      -0.00022810      -0.00036104       0.36563149
O        3.22065000       0.67075000      -0.88101000      -0.00021218       0.00015109       0.00031428      -0.39927287
O        2.43784000       1.57530000       1.00781000      -0.00015652       0.00007031       0.00007291      -0.33977343
S       -0.01420000       0.95297000      -1.20701000      -0.00010088      -0.00032642      -0.00012490       0.55290436
O        0.16540000       2.33212000      -0.79260000       0.00008046       0.00007085       0.00023095      -0.45278653
C       -1.59836000       0.45060000      -0.51761000      -0.00045952      -0.00018327      -0.00063514      -0.02511901
C       -2.20507000      -0.69653000      -0.99716000       0.00007045       0.00006764       0.00019172      -0.02459176
C       -3.43499000      -1.06686000      -0.48102000      -0.00008367      -0.00008147      -0.00009721      -0.02001707
C       -4.04094000      -0.28946000       0.49324000      -0.00004489      -0.00019300       0.00004795      -0.02081645
C       -3.42679000       0.86448000       0.95492000       0.00029915       0.00019452       0.00000847      -0.02149864
C       -2.19805000       1.24157000       0.44479000      -0.00018828       0.00038719       0.00022334      -0.01725864
O        1.52340000      -0.75095000       2.56261000      -0.00021900      -0.00010639       0.00016642      -0.49094002
H        2.10430000      -3.10641000      -0.74245000       0.00009544       0.00022762       0.00003715       0.34789505
H        3.20887000       2.16053000       0.93106000       0.00019902       0.00003477       0.00006167       0.34884770
H       -1.70953000      -1.29164000      -1.74778000      -0.00021271       0.00008562      -0.00017469       0.06319102
H       -3.91899000      -1.96404000      -0.83592000       0.00007445       0.00000163       0.00004895       0.04763186
H       -4.99757000      -0.58602000       0.89735000      -0.00005656      -0.00000940       0.00000836       0.04530519
H       -3.90261000       1.46557000       1.71511000      -0.00002469       0.00002926       0.00002305       0.04700111
H       -1.68865000       2.13244000       0.77846000      -0.00009224      -0.00008668      -0.00006124       0.06844662
H        0.46809000      -1.37303000       2.41295000       0.00050134       0.00001711       0.00003037       0.41496822
H        1.50494000      -0.07956000       3.25121000      -0.00002450      -0.00002096      -0.00011627       0.31015083
