21
Properties=species:S:1:pos:R:3:forces:R:3:charge:R:1 charge=0 spin=1 energy=-881.077304111853 dipole="0.11791145132802787 0.2932904042046998 0.4696972072106536" pbc="F F F"
C        1.00294000       0.47028000       0.02743000       0.00025962      -0.00038490       0.00001094      -0.11326640
C        1.43386000       1.89648000      -0.31658000       0.00032465       0.00022673       0.00019307      -0.10650261
C        1.86064000      -0.58071000      -0.28723000       0.00015025       0.00011184       0.00019546       0.29154191
O        1.98483000      -1.69413000      -0.64088000       0.00010928       0.00012786      -0.00011471      -0.29891457
O        3.20095000       0.00535000       0.65593000       0.00013122      -0.00013560       0.00004215      -0.52301228
C       -0.44692000       0.18736000       0.00431000      -0.00048836      -0.00006716      -0.00015302       0.01452956
C       -1.38176000       1.22381000      -0.03283000       0.00009073      -0.00001289       0.00006544      -0.04365622
C       -2.73839000       0.96125000       0.01354000      -0.00010670       0.00016088       0.00001951      -0.03162207
C       -3.20107000      -0.33963000       0.09770000      -0.00036568       0.00005415      -0.00007187      -0.03592962
C       -2.28636000      -1.37865000       0.14392000       0.00022850      -0.00031297       0.00005058      -0.02932865
C       -0.93067000      -1.12034000       0.10461000      -0.00033289       0.00004758       0.00005969      -0.04647219
H        2.07320000       0.42259000       1.06211000      -0.00012685       0.00006488      -0.00003689       0.33184260
H        1.13037000       2.60201000       0.45471000       0.00009316      -0.00012601      -0.00007887       0.04347357
H        0.97757000       2.20081000      -1.25891000      -0.00012916       0.00011865      -0.00015065       0.05001039
H        2.51246000       1.95187000      -0.43248000      -0.00010892      -0.00003158      -0.00005885       0.05694270
H        3.57588000      -0.72845000       1.15288000       0.00005832       0.00010292      -0.00000672       0.29800107
H       -1.05722000       2.24987000      -0.09668000      -0.00001051       0.00006418       0.00000714       0.03277524
H       -3.43924000       1.78327000      -0.01883000       0.00009147      -0.00013501      -0.00000280       0.02568505
H       -4.26115000      -0.54247000       0.12887000       0.00012447       0.00002883       0.00001205       0.02571185
H       -2.63174000      -2.39995000       0.21388000       0.00005180       0.00021519      -0.00001462       0.02747700
H       -0.23998000      -1.94833000       0.14473000      -0.00004441      -0.00011759       0.00003299       0.03071368
