22
Properties=species:S:1:pos:R:3:forces:R:3:charge:R:1 charge=0 spin=1 energy=-902.9088688127537 dipole="-0.5313528891941903 0.9765378836988099 0.023325020620820505" pbc="F F F"
C       -0.30771000      -0.87948000       0.07103000       0.00022881       0.00032168       0.00031213       0.02994304
C       -1.17366000      -0.10135000      -0.86106000      -0.00009398       0.00027713       0.00001055      -0.09000859
C       -2.54255000       0.05258000      -0.17185000      -0.00003876      -0.00001961      -0.00000771       0.25003331
C       -2.72706000       1.34548000       0.56399000      -0.00026632       0.00004942      -0.00011181      -0.14421778
O       -3.36736000      -0.81556000      -0.22733000       0.00003741       0.00001583       0.00005597      -0.32823881
C        0.48781000      -0.24326000       1.06591000       0.00012299      -0.00032736      -0.00030619      -0.11220281
C        1.73873000      -0.61880000      -0.08796000       0.00007440      -0.00047433       0.00012351       0.35535193
O        2.59468000      -1.37617000       0.36173000      -0.00018722       0.00019639      -0.00011532      -0.50588057
O        1.94931000       0.57372000      -0.75791000       0.00015555       0.00022383      -0.00009063      -0.32014612
C        2.87112000       1.41860000      -0.08690000      -0.00006964       0.00010395      -0.00012232       0.03913718
H        0.99596000      -1.15894000      -0.90244000       0.00007625       0.00005905       0.00009224       0.04884736
H       -0.54890000      -1.92727000       0.19838000      -0.00003774      -0.00013699       0.00002347       0.08670583
H       -0.73297000       0.87313000      -1.06746000      -0.00001260      -0.00012851       0.00005109       0.08006999
H       -1.33299000      -0.64848000      -1.79139000       0.00001681      -0.00008297      -0.00013074       0.08177349
H       -3.69255000       1.36007000       1.06275000       0.00003198       0.00002484      -0.00010262       0.07867108
H       -1.93337000       1.46390000       1.29837000       0.00022340       0.00001661       0.00012087       0.07806869
H       -2.66774000       2.17680000      -0.13579000       0.00003430      -0.00011136       0.00009365       0.07879749
H        0.40205000       0.82762000       1.17970000      -0.00022327       0.00007134       0.00003534       0.05447318
H        0.70000000      -0.77724000       1.97953000      -0.00011120       0.00004152      -0.00002878       0.07062975
H        2.44215000       1.83061000       0.83208000      -0.00002694      -0.00001025       0.00005392       0.03870604
H        3.09863000       2.22068000      -0.78527000      -0.00001740      -0.00003897       0.00000929       0.06625947
H        3.77658000       0.86045000       0.16067000       0.00008314      -0.00007122       0.00003410       0.06322687
