24
Properties=species:S:1:pos:R:3:forces:R:3:charge:R:1 charge=0 spin=1 energy=-1373.7234415374921 dipole="-0.9362751231667265 -0.6072043594106986 -0.24901598825184815" pbc="F F F"
O        3.26824000      -2.38379000      -0.23608000       0.00036781       0.00008011       0.00010124      -0.10116292
N        2.13614000      -2.35305000      -0.17779000      -0.00026992       0.00012623      -0.00009130       0.29715276
C        0.49067000       0.40837000       0.10350000       0.00007714       0.00002263       0.00043452      -0.08399351
Br       2.10965000       1.50253000      -0.06244000       0.00010685      -0.00020227      -0.00013319      -0.15092010
C        0.59955000      -0.60671000       1.11706000      -0.00035466      -0.00009595      -0.00059506       0.33923475
O        1.65969000      -1.24621000       1.26673000       0.00022011      -0.00029483       0.00048912      -0.36089286
O       -0.44804000      -0.96223000       1.86200000       0.00052881       0.00003664       0.00037474      -0.35302794
C       -0.72855000       1.17698000      -0.19705000      -0.00017687      -0.00053775      -0.00019655       0.21691882
O       -0.69736000       2.35640000      -0.47612000       0.00004316       0.00015989      -0.00008164      -0.35851046
C       -2.00696000       0.40560000      -0.18967000       0.00009926       0.00030130      -0.00006131      -0.03195720
C       -3.16020000       1.06340000       0.23708000      -0.00024514      -0.00013220       0.00006286      -0.02286992
C       -4.37749000       0.40935000       0.23153000      -0.00000059      -0.00041263      -0.00010355      -0.02560904
C       -4.45756000      -0.89824000      -0.22029000      -0.00013961       0.00050501       0.00019009      -0.02116877
C       -3.31976000      -1.54851000      -0.67146000      -0.00029635      -0.00030091      -0.00010864      -0.02425335
C       -2.09481000      -0.90655000      -0.65746000       0.00053953       0.00021751      -0.00001077      -0.03628327
O        1.47338000      -1.37344000      -1.50104000      -0.00018413       0.00026334      -0.00031015      -0.47568567
H       -1.23693000      -0.42072000       1.70158000      -0.00021925       0.00001365      -0.00008628       0.32600558
H       -3.08085000       2.08790000       0.56927000       0.00002841       0.00016330       0.00000573       0.05710274
H       -5.26447000       0.92218000       0.57076000      -0.00001199       0.00002582      -0.00000450       0.04628780
H       -5.40912000      -1.40766000      -0.23164000       0.00002013      -0.00005371      -0.00000543       0.04573790
H       -3.38605000      -2.56018000      -1.04114000       0.00002530       0.00003616       0.00000846       0.04702044
H       -1.21968000      -1.41831000      -1.02929000      -0.00004040       0.00004149       0.00004169       0.04619979
H        0.89729000      -0.49084000      -0.93812000      -0.00029769       0.00019482      -0.00021991       0.30078733
H        2.19242000      -0.97753000      -2.01490000       0.00018011      -0.00015763       0.00029986       0.32388708
