11
Properties=species:S:1:pos:R:3:forces:R:3:charge:R:1 charge=0 spin=1 energy=-596.8187779510333 dipole="-0.6658221204992953 0.6511304510688459 0.5339526540553962" pbc="F F F"
O        1.20209494       2.29534954      -0.50332979       0.00004850      -0.00005466       0.00016836      -0.30604177
C        1.16224714       1.56839383       0.43705717       0.00008917       0.00012365       0.00020268       0.24755531
N       -0.06211297       0.68493972       0.67992786      -0.00011705      -0.00012380      -0.00010780      -0.14485581
C       -1.03850890       0.77553188      -0.39352294       0.00010118      -0.00017265       0.00044582       0.06869612
Br      -2.54642479      -0.39702505      -0.01364185       0.00017804       0.00012794      -0.00004578      -0.13797662
Br       2.26639943      -0.79022661      -0.06351165      -0.00002452       0.00001191       0.00000721      -0.52344663
H        1.78894369       1.58816766       1.32795532      -0.00019010      -0.00003683      -0.00037030       0.07481352
H       -0.47871785       0.84080690       1.60042208      -0.00002447       0.00002795      -0.00018397       0.21684815
H       -1.42319400       1.79170816      -0.50645455      -0.00012912       0.00025614       0.00004792       0.09920458
H       -0.57309037       0.44611002      -1.32479636       0.00007798      -0.00022243      -0.00014732       0.11791015
H        0.56136369      -0.31622603       0.59180471      -0.00000962       0.00006279      -0.00001681       0.28729300
