13
Properties=species:S:1:pos:R:3:forces:R:3:charge:R:1 charge=0 spin=1 energy=-548.0772248273142 dipole="-0.032486897370957606 0.8000151818134738 0.2608273446253733" pbc="F F F"
C       -1.14301000       1.93115000      -0.14784000      -0.00007547       0.00021962       0.00059081      -0.11175421
C       -1.30913000       0.56988000       0.49759000       0.00014332       0.00059280       0.00040848      -0.02345928
C       -1.87292000      -0.55754000      -0.55852000      -0.00060123      -0.00013222      -0.00018746       0.15325864
O       -1.62116000      -1.72056000      -0.00534000       0.00006217      -0.00135657       0.00062453      -0.48879932
C       -0.12381000      -0.16902000       0.87996000      -0.00117866       0.00013287       0.00048077       0.08792741
Br       1.40770000      -0.07766000      -0.10883000       0.00160809      -0.00009162      -0.00084347      -0.01314158
H       -0.42070000       1.90006000      -0.96070000      -0.00004180      -0.00007908      -0.00004663       0.05999260
H       -2.09715000       2.26520000      -0.54800000      -0.00011729       0.00015389       0.00003222       0.05517387
H       -0.80481000       2.65925000       0.58819000       0.00009362       0.00013880      -0.00008856       0.05231296
H       -2.02302000       0.59248000       1.32300000      -0.00037567       0.00007640      -0.00031309       0.06935893
H       -1.23698000      -0.31553000      -1.43039000       0.00038235       0.00002904      -0.00021044       0.04352600
H       -2.92936000      -0.43012000      -0.87240000      -0.00002095       0.00033135      -0.00024989       0.00851136
H       -0.09493000      -0.83572000       1.72499000       0.00012152      -0.00001527      -0.00019727       0.10709262
