25
Properties=species:S:1:pos:R:3:forces:R:3:charge:R:1 charge=0 spin=1 energy=-1619.3221126692947 dipole="-0.10948787702740444 -0.12510633468898696 0.1487749024854851" pbc="F F F"
C        4.43645000       0.76155000       0.41174000       0.00012695      -0.00004273      -0.00024750      -0.11872988
C        2.98780000       0.46346000       0.18910000      -0.00015547       0.00006137      -0.00009185       0.01730395
C        2.06444000       1.49515000       0.06278000       0.00002004      -0.00006065       0.00002200      -0.02621017
C        0.71628000       1.24577000      -0.12409000       0.00027874       0.00019440       0.00004507      -0.03790779
N       -0.16787000       2.36484000      -0.22154000      -0.00013276       0.00001663       0.00003517       0.54991778
O       -1.36198000       2.17907000      -0.07128000       0.00008422       0.00006792      -0.00003804      -0.41767957
O        0.32480000       3.45369000      -0.43634000      -0.00004614      -0.00014536       0.00000940      -0.39501186
C        0.19458000      -0.07981000      -0.22258000      -0.00027390       0.00018056       0.00003002       0.20063850
O       -1.03759000      -0.29821000      -0.46099000       0.00004247      -0.00002646      -0.00009867      -0.48589288
N       -3.14952000       0.14579000       0.32017000       0.00012717      -0.00017773      -0.00012358       0.79757023
O       -3.63718000       0.43741000      -0.66351000      -0.00021533       0.00007399      -0.00038308      -0.17631378
O       -2.91528000       0.45990000       1.38329000       0.00010570       0.00012818       0.00052604      -0.15906843
C        1.16563000      -1.11628000      -0.08314000       0.00043710      -0.00042019       0.00006378      -0.04534170
N        0.78040000      -2.48202000      -0.16509000      -0.00002410       0.00040180      -0.00015568       0.54020371
O        1.65164000      -3.32763000      -0.13152000       0.00002595      -0.00005303       0.00006939      -0.39374138
O       -0.40966000      -2.75541000      -0.26581000      -0.00013640      -0.00014322       0.00003360      -0.42108743
C        2.51406000      -0.83386000       0.11491000      -0.00014382       0.00011035       0.00000423      -0.02888807
O       -2.83080000      -1.61188000       0.28688000      -0.00006366      -0.00006428       0.00005799      -0.50666594
H        4.58029000       1.21824000       1.39012000       0.00002085       0.00007500       0.00017432       0.06209388
H        5.03014000      -0.14650000       0.36273000      -0.00004568       0.00007768      -0.00000717       0.05753112
H        4.79915000       1.46172000      -0.33806000      -0.00004961      -0.00012100       0.00010459       0.06200884
H        2.38333000       2.52623000       0.12067000      -0.00003722      -0.00007053      -0.00001495       0.08740044
H        3.18847000      -1.67265000       0.21100000       0.00003805      -0.00005779       0.00001315       0.08747312
H       -3.22461000      -2.10029000      -0.44732000       0.00000237      -0.00001484      -0.00004733       0.33281796
H       -1.74490000      -1.39835000      -0.05216000       0.00001449       0.00000994       0.00001911       0.41757936
