24
Properties=species:S:1:pos:R:3:forces:R:3:charge:R:1 charge=0 spin=1 energy=-1176.0987567247003 dipole="-0.6888689722505719 0.31592423418426857 -0.48969654203918506" pbc="F F F"
C        1.39528000       2.13456000       0.51195000       0.00008550       0.00027297      -0.00005035       0.03276128
O        1.73328000       1.45167000      -0.67792000      -0.00007216      -0.00001453      -0.00018497      -0.30961935
C        2.55905000       0.33368000      -0.45285000      -0.00009761       0.00005999      -0.00026528       0.04245264
C        1.74393000      -0.86530000       0.06123000      -0.00005691      -0.00039452       0.00035548       0.36055926
O        2.13306000      -1.63339000       0.89572000      -0.00003886       0.00005339      -0.00036183      -0.38660463
O        0.58344000      -0.94980000      -0.56399000       0.00032599       0.00041335      -0.00001938      -0.42003443
C       -1.05465000      -1.15758000       0.19944000      -0.00042026      -0.00031007       0.00018811       0.36356487
C       -1.59262000      -2.26754000      -0.61899000       0.00017171       0.00033574      -0.00003700      -0.14287400
O       -1.05316000      -0.90042000       1.34371000       0.00011389       0.00079544      -0.00015956      -0.31175502
O       -1.33769000       0.23767000      -0.80656000      -0.00114794       0.00011789       0.00050153      -0.27209290
O       -1.55504000       1.39665000      -0.03733000       0.00152291       0.00067420      -0.00021317      -0.17625006
C       -2.92015000       1.54309000       0.26563000       0.00005530      -0.00068577      -0.00008526       0.03260122
H        0.72789000       2.94167000       0.21997000       0.00004497       0.00001665       0.00002879       0.06755053
H        0.88193000       1.48150000       1.22454000      -0.00014090      -0.00011060       0.00014697       0.04329189
H        2.29089000       2.54699000       0.98996000       0.00003112      -0.00001263       0.00001003       0.03526846
H        2.98826000       0.06244000      -1.42236000       0.00014754      -0.00003850       0.00013711       0.07196429
H        3.36857000       0.55273000       0.25352000      -0.00010315      -0.00001980       0.00010664       0.05164632
H       -1.42925000      -2.08283000      -1.67506000       0.00002761      -0.00009492      -0.00009270       0.09810493
H       -2.65785000      -2.36309000      -0.41699000      -0.00006438      -0.00005917       0.00001180       0.09375310
H       -1.08506000      -3.18230000      -0.32171000       0.00010128      -0.00012421       0.00000840       0.10563306
H       -0.13320000       0.07772000      -0.94671000      -0.00035711      -0.00046265       0.00020106       0.42384487
H       -2.96584000       2.49044000       0.79915000      -0.00001884      -0.00027259       0.00034668       0.08122198
H       -3.27646000       0.73606000       0.91153000      -0.00006541      -0.00035523      -0.00034479       0.05838563
H       -3.52619000       1.59393000      -0.64333000      -0.00004429       0.00021556      -0.00022832       0.05662609
