25
Properties=species:S:1:pos:R:3:forces:R:3:charge:R:1 charge=0 spin=1 energy=-1077.5032777114855 dipole="0.595790806252611 -1.150308368759058 -0.08357798197353146" pbc="F F F"
C        2.20568000       0.39985000       0.10947000       0.00081322      -0.00022037      -0.00077847       0.11202213
O        2.47790000      -0.89786000       0.27966000      -0.00013742      -0.00025881      -0.00032237      -0.22431591
C        3.28111000      -1.50198000      -0.71582000      -0.00003041      -0.00000601       0.00037616       0.02539943
C        1.17228000       1.03001000       0.91269000      -0.00112133       0.00035059      -0.00054870       0.07840992
O        0.60651000       0.30941000       1.94476000      -0.00017162       0.00032434      -0.00045404      -0.40672727
C        0.33734000       1.16544000      -0.56886000       0.00018078       0.00128456       0.00076043       0.20108268
O        0.35611000       2.31187000      -1.04229000       0.00019530      -0.00047184       0.00002431      -0.50525749
C       -0.87589000       0.30588000      -0.37626000       0.00027731      -0.00028427      -0.00017399       0.00737270
C       -0.85046000      -1.08255000      -0.37997000       0.00022091       0.00021574       0.00035859      -0.04291152
C       -2.01662000      -1.79594000      -0.16215000       0.00020258      -0.00006470      -0.00022274      -0.02960697
C       -3.21116000      -1.13050000       0.05258000      -0.00026186       0.00041254      -0.00000614      -0.02969228
C       -3.23751000       0.25419000       0.04881000       0.00022987      -0.00022618       0.00011986      -0.02439516
C       -2.07512000       0.97299000      -0.15909000      -0.00036611       0.00006151      -0.00003698      -0.02027703
H        1.11067000       0.41023000      -1.19404000      -0.00019347      -0.00085760       0.00063952       0.01205619
H        2.92848000       1.02842000      -0.39820000      -0.00042580       0.00001861       0.00007747       0.06624991
H        3.48618000      -2.51471000      -0.37594000      -0.00002207       0.00006464      -0.00000272       0.08042230
H        2.74432000      -1.53117000      -1.67070000      -0.00006648       0.00003832      -0.00008615       0.05693915
H        4.21923000      -0.95745000      -0.84959000       0.00004193       0.00006449      -0.00004169       0.05678814
H        1.36963000       2.04207000       1.25037000       0.00019965      -0.00015111       0.00050480       0.08527258
H        0.51901000      -0.61571000       1.68061000       0.00021739      -0.00018154       0.00003964       0.30650286
H        0.07210000      -1.61635000      -0.56433000       0.00019659       0.00001891      -0.00030946       0.02212109
H       -1.99048000      -2.87600000      -0.16695000       0.00003757      -0.00010549       0.00009771       0.03281552
H       -4.11919000      -1.69087000       0.21809000      -0.00001065      -0.00004090       0.00012282       0.03623633
H       -4.16708000       0.77845000       0.21257000      -0.00004307       0.00000296      -0.00016410       0.04173787
H       -2.07496000       2.05144000      -0.16724000       0.00003719       0.00001161       0.00002625       0.06175483
