16
Properties=species:S:1:pos:R:3:forces:R:3:charge:R:1 charge=0 spin=1 energy=-920.9403432038124 dipole="0.3331272747430315 -0.5310978968331397 -1.1694346225476269" pbc="F F F"
O        0.15798000       2.22646000       0.66165000      -0.00000584       0.00044841      -0.00001481      -0.23886653
N        0.59609000       1.09880000       1.00851000       0.00003655      -0.00028313       0.00021435       0.02821311
C        1.02994000       0.46802000      -0.09850000      -0.00003629       0.00015598      -0.00012194      -0.05257224
C        0.05040000      -0.27936000      -1.00995000       0.00025228       0.00000244      -0.00000732      -0.07056982
C       -1.33793000       0.29530000      -0.92955000       0.00007985      -0.00012189       0.00006862       0.29531147
O       -1.78927000       1.19275000      -1.54962000      -0.00011746      -0.00000680      -0.00006008      -0.26834513
Br      -2.43954000      -0.61845000       0.40558000      -0.00005551       0.00001080      -0.00002112      -0.12758791
S        2.43826000      -0.72335000       0.32266000      -0.00049112      -0.00040039      -0.00032794       0.42853689
C        3.18300000      -0.58059000      -1.37019000       0.00012859       0.00027542      -0.00000471      -0.14650342
O        3.33050000       0.01481000       1.19569000       0.00051718       0.00029688       0.00044007      -0.45362028
H        0.60879000       1.86425000      -0.64910000      -0.00002891      -0.00008077       0.00001768       0.21323679
H        0.38396000      -0.21386000      -2.04935000       0.00002904      -0.00006968      -0.00004914       0.09071929
H        0.03510000      -1.32784000      -0.69525000      -0.00003686      -0.00001479      -0.00007792       0.09240195
H        4.19184000      -0.97273000      -1.29253000      -0.00017160       0.00008750      -0.00002908       0.07935857
H        3.22275000       0.46033000      -1.67183000      -0.00000345      -0.00023843       0.00005902       0.07359073
H        2.61056000      -1.17494000      -2.07205000      -0.00009644      -0.00006154      -0.00008568       0.05669653
