25
Properties=species:S:1:pos:R:3:forces:R:3:charge:R:1 charge=0 spin=1 energy=-1337.799574118462 dipole="0.7058976392123961 0.29800000473820715 -0.4784054917804295" pbc="F F F"
O       -3.64389394       1.46795411      -0.60444612      -0.00020249       0.00052079       0.00021923      -0.17039943
N       -3.15639724       0.50223894      -1.01609510       0.00023530      -0.00052466      -0.00022492       0.14628217
C       -1.27764183       0.29361088      -0.25369495      -0.00002164      -0.00000139      -0.00002652      -0.21242657
C       -1.13899853       1.47412635       0.65438267       0.00007252      -0.00006907       0.00005943       0.09999238
F       -0.05549677       2.26220934       0.31403086      -0.00003124      -0.00000490       0.00008346      -0.26224164
S       -0.17522367      -1.07224748       0.35143812      -0.00017811      -0.00015996      -0.00077075       0.99283658
O       -0.42447467      -2.21310013      -0.48685865       0.00012122       0.00019613       0.00016725      -0.54637663
O       -0.37111913      -1.21166108       1.76664378      -0.00008527      -0.00003779       0.00062176      -0.54136820
C        1.47474139      -0.43829728       0.02758691      -0.00023336      -0.00013595      -0.00000029      -0.06622699
C        1.97960038      -0.53593403      -1.25338995       0.00018990       0.00000157      -0.00024752      -0.02548575
C        3.23788473      -0.02025742      -1.51503784      -0.00020492      -0.00015973      -0.00013749      -0.01991633
C        3.95991758       0.58640319      -0.49839936       0.00017201       0.00011549      -0.00004698      -0.01956554
C        3.43805811       0.67258723       0.78267828       0.00008865       0.00010036       0.00019245      -0.01794540
C        2.18079614       0.15721311       1.05199390       0.00009903       0.00010608       0.00021485      -0.01816459
O       -3.51430848      -0.87874174       0.04591692      -0.00003902      -0.00015757      -0.00010502      -0.51034171
H       -0.89896882       0.47923354      -1.25572454      -0.00005444      -0.00003851      -0.00007345       0.08640476
H       -2.02363569       2.13172226       0.58852895       0.00001636       0.00004388      -0.00001414       0.08841565
H       -0.99408458       1.15560716       1.69107015      -0.00004204       0.00004068      -0.00004340       0.07240937
H        1.39475130      -1.02563615      -2.01625494      -0.00000056       0.00004567       0.00002964       0.06116170
H        3.65243633      -0.08909328      -2.50906221       0.00003383       0.00000770      -0.00006893       0.05654949
H        4.93799217       0.99329617      -0.70670515       0.00000379      -0.00001998       0.00001208       0.05612792
H        4.00654047       1.14268288       1.57010441       0.00003433      -0.00001606       0.00002667       0.05878289
H        1.74611768       0.19888872       2.03770692      -0.00001872      -0.00001223      -0.00000303       0.06853631
H       -2.28627973      -0.53927464       0.07390790      -0.00003321       0.00004904      -0.00000103       0.30939814
H       -3.63129323      -1.62034064      -0.55532097       0.00007809       0.00011042       0.00013664       0.31356143
