25
Properties=species:S:1:pos:R:3:forces:R:3:charge:R:1 charge=0 spin=1 energy=-1159.6256187770457 dipole="-0.5479496212443438 0.5718418131261851 -0.4540602943631995" pbc="F F F"
C        3.63349000       0.55790000       0.66699000      -0.00002441      -0.00019004       0.00031491       0.03503604
O        3.36172000      -0.14562000      -0.52554000      -0.00012533       0.00023088      -0.00006733      -0.29775994
C        2.04179000      -0.03887000      -0.97083000       0.00018207      -0.00022146       0.00008681       0.05206436
C        1.00326000      -0.75911000      -0.09333000       0.00007789       0.00023935      -0.00032036       0.36008620
O        1.25545000      -1.31273000       0.93974000      -0.00004237      -0.00018187       0.00011668      -0.38946178
O       -0.20388000      -0.70551000      -0.62682000      -0.00010923      -0.00011600      -0.00004255      -0.47962652
C       -1.87781000      -0.71317000       0.29937000      -0.00017141      -0.00057970      -0.00004180       0.35355819
C       -2.47870000      -1.89615000      -0.35410000       0.00024069       0.00003301      -0.00002172      -0.14308050
O       -1.77616000      -0.36385000       1.42072000      -0.00001092       0.00029436       0.00018068      -0.33215894
O       -2.09327000       0.56427000      -0.74694000      -0.00002761       0.00009323       0.00002336      -0.27925560
N       -2.15445000       1.81389000      -0.09025000      -0.00005899       0.00027397       0.00046218      -0.11182639
C       -0.84605000       2.39208000       0.14795000      -0.00014413      -0.00020297      -0.00036481      -0.04800311
H        3.40588000       1.62609000       0.54974000       0.00002436       0.00000149      -0.00003084       0.02248182
H        4.69789000       0.43224000       0.85209000      -0.00006657       0.00001624      -0.00003874       0.06192878
H        3.06733000       0.15606000       1.51033000       0.00018773       0.00014558      -0.00016719       0.05409378
H        2.01496000      -0.49442000      -1.96529000      -0.00003078      -0.00004610       0.00005984       0.06902922
H        1.73861000       1.01969000      -1.06238000       0.00005252       0.00005664      -0.00000974       0.02911338
H       -2.35336000      -1.85169000      -1.43017000       0.00001422      -0.00002163       0.00003537       0.09520627
H       -1.99707000      -2.78732000       0.04032000      -0.00008008       0.00014241      -0.00006030       0.10548709
H       -3.53858000      -1.91944000      -0.10533000      -0.00009541       0.00000165       0.00004901       0.09494886
H       -0.97758000       0.24567000      -1.03723000       0.00012516       0.00000610      -0.00011763       0.40512804
H       -2.60892000       1.62735000       0.80822000       0.00014774      -0.00003540      -0.00034034       0.17710845
H       -1.01148000       3.35281000       0.63040000      -0.00001640       0.00011908       0.00007918       0.06878840
H       -0.20101000       1.78197000       0.78998000       0.00000569      -0.00001912       0.00004408       0.04438124
H       -0.36228000       2.56523000      -0.81443000      -0.00005443      -0.00003970       0.00017126       0.05273265
