31
Properties=species:S:1:pos:R:3:forces:R:3:charge:R:1 charge=0 spin=1 energy=-1226.571040363226 dipole="1.6842289737954899 0.1925758867154202 0.183598936241889" pbc="F F F"
C        1.22097000       0.21687000       1.60902000       0.00008765      -0.00012676      -0.00000579      -0.09975107
C        2.57065000       0.30070000       0.93861000       0.00004589      -0.00008031       0.00033455      -0.08910969
C        2.68108000      -0.70941000      -0.19055000      -0.00050845      -0.00036261      -0.00021885       0.24162213
C        4.07833000      -1.01551000      -0.64679000       0.00025449       0.00018696       0.00021310      -0.14234633
O        1.70062000      -1.21670000      -0.68077000       0.00021687       0.00021619       0.00017197      -0.36621356
C        0.37766000       1.33517000       1.74788000      -0.00020168       0.00026615       0.00006812      -0.02805007
N       -0.83302000       0.55087000       0.29401000      -0.00014610      -0.00001018       0.00006715      -0.28848049
C       -2.04747000       0.00323000       0.83790000      -0.00013995       0.00013040      -0.00022959      -0.00750726
C       -2.50831000      -1.27608000       0.14451000       0.00031236       0.00018596       0.00004972       0.23808031
C       -1.96067000      -1.50605000      -1.23344000      -0.00007652      -0.00020895      -0.00014017      -0.13841123
O       -3.27090000      -2.02961000       0.69438000      -0.00022368      -0.00013303       0.00013109      -0.36112860
C       -0.99165000       1.48616000      -0.70716000       0.00010656      -0.00009681      -0.00005079       0.29015759
C        0.16832000       1.55538000      -1.67630000       0.00003024      -0.00004860      -0.00014524      -0.14135489
O       -1.92527000       2.26320000      -0.74897000      -0.00003824       0.00006806      -0.00000738      -0.43129570
H        0.36061000      -0.15139000       0.59569000       0.00000749      -0.00002498       0.00002998       0.24863396
H        1.13520000      -0.56676000       2.35076000       0.00006197       0.00012409      -0.00008237       0.05409940
H        3.38864000       0.14160000       1.64559000      -0.00003777       0.00003574      -0.00010935       0.05912188
H        2.71262000       1.28798000       0.49115000      -0.00000308      -0.00003541      -0.00002062       0.07007188
H        4.54123000      -1.68225000       0.07970000      -0.00004069       0.00002673      -0.00006307       0.07731627
H        4.67535000      -0.10882000      -0.69996000      -0.00005916      -0.00004973       0.00002364       0.06469745
H        4.06311000      -1.51395000      -1.61241000      -0.00000376      -0.00011212      -0.00022649       0.07352814
H       -0.36262000       1.38036000       2.52743000       0.00009912      -0.00002804      -0.00010874       0.07382541
H        0.63344000       2.27850000       1.29406000      -0.00002164      -0.00007943       0.00005808       0.06746928
H       -1.91600000      -0.22636000       1.89918000       0.00004331      -0.00005217       0.00012759       0.05639764
H       -2.87120000       0.72665000       0.74086000       0.00007491      -0.00006933       0.00011255       0.07817810
H       -0.88135000      -1.64113000      -1.17168000       0.00011313       0.00006964      -0.00006417       0.08875040
H       -2.15492000      -0.63459000      -1.85578000       0.00006140       0.00003718      -0.00000969       0.06815727
H       -2.41699000      -2.38799000      -1.67441000       0.00004360       0.00007094       0.00001725       0.06712545
H        0.94322000       2.20000000      -1.26525000      -0.00003648       0.00001880       0.00001291       0.05236860
H       -0.17419000       1.99461000      -2.60936000       0.00002710      -0.00003055       0.00003632       0.06183872
H        0.58605000       0.56952000      -1.85287000      -0.00004888       0.00011215       0.00002827       0.06220896
