30
Properties=species:S:1:pos:R:3:forces:R:3:charge:R:1 charge=0 spin=1 energy=-1246.0941915832323 dipole="0.29920193411799684 0.007064485377911944 0.41530782232299185" pbc="F F F"
C       -0.09660000      -1.27498000      -0.43221000      -0.00004904       0.00013320       0.00010205       0.04803340
C       -0.33710000      -0.15144000       0.44857000       0.00014210      -0.00002525       0.00003132      -0.04193344
C       -1.18468000       0.98639000      -0.03995000       0.00021605       0.00010403       0.00015465       0.06772712
O       -2.52877000       0.88235000       0.48524000       0.00001157       0.00001438       0.00009497      -0.26069357
C       -3.36053000       0.08600000      -0.15849000       0.00003135      -0.00013867      -0.00040961       0.48678223
O       -3.13371000      -0.53820000      -1.15692000       0.00003620       0.00014840       0.00028268      -0.45964054
O       -4.54351000       0.08016000       0.46774000      -0.00018807      -0.00011605       0.00000512      -0.38277944
C        0.56949000       0.02815000       1.48772000      -0.00020841       0.00025628      -0.00011280      -0.06492209
C        2.27737000       0.27366000       0.59027000      -0.00001962       0.00012382       0.00001574      -0.03811818
C        2.11469000       1.59725000      -0.11972000       0.00019463      -0.00004650       0.00026622      -0.05161692
C        3.45346000       2.03213000      -0.71399000       0.00023524      -0.00022491      -0.00002914      -0.10355728
C        2.24682000      -0.91512000      -0.14080000       0.00012671      -0.00003230       0.00000687       0.13561555
C        2.87272000      -2.16984000       0.39883000       0.00012732      -0.00028188       0.00016686      -0.12215989
O        1.30187000      -1.05153000      -1.05957000      -0.00002620       0.00015273      -0.00023794      -0.31541218
H       -0.00203000      -2.23946000       0.06901000      -0.00012254      -0.00007511       0.00003449       0.04669605
H       -0.76340000      -1.33911000      -1.28649000       0.00007377      -0.00004818       0.00002691       0.08311687
H       -0.83802000       1.94851000       0.33943000      -0.00006014      -0.00004580      -0.00002987       0.06882862
H       -1.24551000       0.99827000      -1.13256000      -0.00007531      -0.00010653      -0.00013906       0.06380993
H       -5.16231000      -0.49200000      -0.00890000       0.00010606       0.00009843       0.00006837       0.34210822
H        0.87091000      -0.83897000       2.06031000      -0.00000773      -0.00018267       0.00009789       0.04839991
H        0.47091000       0.92068000       2.09042000       0.00004538      -0.00008022      -0.00001341       0.05128278
H        3.00845000       0.31432000       1.39365000      -0.00008756       0.00000821      -0.00010125       0.04065924
H        1.38321000       1.48976000      -0.92034000      -0.00019224      -0.00005376      -0.00021856       0.04853105
H        1.76641000       2.36267000       0.57561000      -0.00005529       0.00007397       0.00006859       0.03452626
H        3.34524000       2.98493000      -1.22644000      -0.00003636       0.00012405      -0.00005902       0.04093744
H        3.80530000       1.29118000      -1.42753000      -0.00006657       0.00010030       0.00007793       0.04192519
H        4.20394000       2.14365000       0.06595000      -0.00009056      -0.00002484      -0.00004894       0.03629397
H        3.12891000      -2.83424000      -0.42318000      -0.00001276       0.00006365       0.00003017       0.06155433
H        3.76449000      -1.94626000       0.97619000      -0.00007573       0.00000689      -0.00007643       0.04359760
H        2.16257000      -2.69948000       1.04161000       0.00002774       0.00007432      -0.00005477       0.05040773
