31
Properties=species:S:1:pos:R:3:forces:R:3:charge:R:1 charge=0 spin=1 energy=-1272.8937573254175 dipole="1.2841790462735643 -0.7126630445190165 0.5424271012907971" pbc="F F F"
N       -0.69885000      -1.36580000       0.53101000      -0.00023745       0.00000604      -0.00019039      -0.11302375
C       -1.14667000      -1.92589000       1.78359000       0.00008328      -0.00029351      -0.00006493      -0.05127374
C        0.58707000      -1.55775000       0.06070000       0.00025953      -0.00009974       0.00002940       0.06772743
C        0.81123000      -1.49093000      -1.31951000       0.00022627      -0.00007787      -0.00012477      -0.05162973
C        2.09334000      -1.56007000      -1.82705000      -0.00045717       0.00005007      -0.00038594      -0.02647567
C        3.17501000      -1.69671000      -0.97236000       0.00055624      -0.00009620       0.00021181      -0.03413515
C        2.96108000      -1.77655000       0.39400000      -0.00035226      -0.00000203      -0.00004716      -0.02595954
C        1.68336000      -1.70669000       0.91301000       0.00005508       0.00004445      -0.00042121      -0.04554726
C        3.14812000       2.12517000       0.72950000       0.00027610       0.00009218      -0.00004325       0.02923310
O        1.89652000       1.50800000       0.45754000      -0.00012636      -0.00028355      -0.00006703      -0.25737654
C        0.95517000       2.28369000      -0.08388000      -0.00010690       0.00013375       0.00007000       0.35840635
O        1.09890000       3.44647000      -0.33630000      -0.00003902       0.00013616      -0.00007886      -0.38351193
C       -0.31651000       1.49023000      -0.36642000       0.00031526      -0.00011057       0.00011497      -0.08775110
C       -0.82382000       0.83412000       0.85834000       0.00006856       0.00005529      -0.00012418      -0.02612739
Br      -3.19854000       0.12175000      -0.34330000      -0.00010219      -0.00012609      -0.00013165      -0.52678071
H       -1.41628000      -1.41660000      -0.19052000       0.00000535       0.00013993       0.00022648       0.21381512
H       -1.06197000      -3.01650000       1.78960000       0.00000187       0.00016989       0.00002203       0.05275246
H       -2.19042000      -1.64991000       1.91876000      -0.00010534       0.00000238      -0.00000946       0.08176971
H       -0.57187000      -1.52750000       2.61865000       0.00000335       0.00008609       0.00009879       0.05764867
H       -0.03477000      -1.41187000      -1.98830000       0.00008891      -0.00001052       0.00004582       0.04207130
H        2.24927000      -1.50842000      -2.89424000      -0.00004324       0.00000675       0.00023841       0.03884905
H        4.17725000      -1.74783000      -1.36923000      -0.00022601       0.00003227       0.00005902       0.03577083
H        3.80016000      -1.89313000       1.06423000       0.00015871      -0.00001304       0.00005567       0.03461294
H        1.53937000      -1.76714000       1.98009000      -0.00004561      -0.00003904       0.00025848       0.03712037
H        3.54798000       2.58535000      -0.17572000      -0.00007573      -0.00009892       0.00021872       0.06724350
H        3.03361000       2.89532000       1.49478000      -0.00000118       0.00003190      -0.00003200       0.06574559
H        3.80429000       1.33200000       1.07774000      -0.00010992       0.00008941      -0.00004376       0.07226973
H       -0.01281000       0.73909000      -1.10535000      -0.00015390      -0.00001444      -0.00017111       0.10539772
H       -1.06172000       2.14490000      -0.81711000      -0.00007444       0.00010698      -0.00003528       0.10039327
H       -1.63652000       1.30998000       1.37774000       0.00000249       0.00005999       0.00016869       0.09912089
H       -0.05246000       0.48416000       1.52783000       0.00015572       0.00002200       0.00015268       0.06964449
