12
Properties=species:S:1:pos:R:3:forces:R:3:charge:R:1 charge=0 spin=1 energy=-829.910183732756 dipole="-0.2819343502254921 0.6637056423647859 0.6984624756732594" pbc="F F F"
N       -1.03104000      -2.44412000      -0.35239000      -0.00048148      -0.00043518      -0.00021622      -0.22211804
C       -0.31875000      -1.68871000       0.13286000       0.00016517       0.00022535       0.00036990       0.10803623
C        0.56322000      -0.76518000       0.73969000       0.00038156      -0.00071295      -0.00027482      -0.13042273
N       -1.66307000       0.72243000      -0.33848000       0.00002478      -0.00120349      -0.00058859       0.21303019
O       -0.93277000       1.23263000      -1.02662000       0.00008654       0.00077057      -0.00028653       0.05108962
N        1.31271000       0.04426000      -0.07739000       0.00042383       0.00052278       0.00200581       0.50798610
O        2.37613000       0.50169000       0.30380000      -0.00037436      -0.00050205      -0.00058942      -0.39966245
O        0.82363000       0.38840000      -1.19952000      -0.00024758       0.00043234      -0.00147000      -0.39536102
O       -1.22135000       1.05332000       1.38312000       0.00038791      -0.00039705      -0.00025461      -0.46689492
H        1.08692000      -1.10090000       1.62829000       0.00001581      -0.00000071      -0.00005214       0.09183238
H       -0.42276000       0.23112000       1.31582000      -0.00054863       0.00119445       0.00074000       0.32202054
H       -0.82625000       1.92682000       1.51218000       0.00016645       0.00010594       0.00061662       0.32046411
