15
Properties=species:S:1:pos:R:3:forces:R:3:charge:R:1 charge=0 spin=1 energy=-890.8495289202286 dipole="-0.915919597309973 -0.7692601949343316 0.6349010105174726" pbc="F F F"
C       -2.44224755      -2.26201930       1.46548843      -0.00018288       0.00010471      -0.00005402      -0.06590363
N       -1.32318556      -1.35019846       1.44954326       0.00027826       0.00006937       0.00020734      -0.09892999
C       -0.40424004      -1.41883649       0.48850767      -0.00015957       0.00001441       0.00001304       0.04062919
Br      -1.19746033      -0.61139508      -1.53855202       0.00005160       0.00011486      -0.00003776      -0.17177363
C        0.83146040      -0.54508557       0.60238797       0.00046817       0.00007063      -0.00002411       0.37102478
O        0.68920061       0.71910748       0.86126578      -0.00022692      -0.00024182       0.00002319      -0.31311446
O        1.90621776      -1.08711357       0.48180433      -0.00033591       0.00030446       0.00008430      -0.27336757
Br       3.85662311       0.37460549      -0.01817802      -0.00017696      -0.00006630      -0.00003058      -0.09960363
Br      -2.35272766       1.58089197       0.31636405      -0.00002887       0.00002291      -0.00010515      -0.33453292
H       -2.89263513      -2.25159323       2.45461910       0.00000669       0.00003874      -0.00002864       0.08363560
H       -2.09874031      -3.26779908       1.23287984       0.00010028       0.00003039       0.00000914       0.07881586
H       -3.19194744      -1.96498632       0.72694610       0.00000598      -0.00002629       0.00010267       0.08665846
H       -1.54203419      -0.43196716       1.82687260       0.00005168      -0.00018992      -0.00023156       0.21151873
H       -0.17499573      -2.41854412       0.13211113      -0.00002294      -0.00012167      -0.00003141       0.11787319
H       -0.22771793       1.08573343       0.75502978       0.00017139      -0.00012448       0.00010354       0.36707004
