34
Properties=species:S:1:pos:R:3:forces:R:3:charge:R:1 charge=0 spin=1 energy=-1501.07687233614 dipole="-0.21483328636309834 -0.850751125150175 0.4595776619379142" pbc="F F F"
C       -0.00379000       0.88518000       2.98164000      -0.00016442       0.00019569      -0.00031087      -0.12187064
C        0.88022000      -0.29145000       2.58233000       0.00027476       0.00014434       0.00008175      -0.09422100
C        0.52294000      -1.00140000       1.32172000      -0.00005751       0.00007807       0.00008120       0.29384268
O        0.71534000      -2.15320000       1.08588000       0.00023210      -0.00034104      -0.00006712      -0.31451514
N       -0.10190000      -0.15467000       0.27156000      -0.00027008      -0.00023884      -0.00000849      -0.09483026
C        0.73915000      -0.09487000      -1.01398000      -0.00016779       0.00037877       0.00039955       0.29875625
O        0.27665000      -0.48836000      -2.03643000       0.00020465      -0.00019341      -0.00043526      -0.30939835
C        2.16285000       0.26664000      -0.73417000      -0.00012686      -0.00062695      -0.00006231      -0.11946464
C        2.98995000      -0.98112000      -0.38527000       0.00016735       0.00001061      -0.00025446       0.24859257
C        3.17983000      -1.94071000      -1.51414000      -0.00004920       0.00004436      -0.00002951      -0.14487654
O        3.44987000      -1.11342000       0.71727000       0.00001654      -0.00009009      -0.00004685      -0.34449315
C       -1.46826000      -0.60182000       0.02472000      -0.00009539       0.00017623      -0.00000593       0.06752343
C       -1.71157000      -1.85662000      -0.51012000       0.00022091      -0.00002821       0.00030132      -0.02605349
C       -3.01848000      -2.24803000      -0.74513000      -0.00036618      -0.00021927      -0.00005573      -0.02211756
C       -4.06733000      -1.39468000      -0.44898000       0.00019183       0.00005291       0.00000563      -0.02382587
C       -3.81292000      -0.14330000       0.08640000       0.00002756      -0.00006864      -0.00008183      -0.02230415
C       -2.51117000       0.25974000       0.32695000       0.00037995       0.00000462      -0.00022676      -0.03789413
Br       0.04179000       2.65620000      -0.54133000      -0.00072592       0.00037286       0.00019862      -0.65930853
H       -1.05054000       0.59164000       3.00894000       0.00005380       0.00001018       0.00006908       0.04986952
H        0.27870000       1.21561000       3.97730000       0.00002413       0.00000233       0.00011007       0.06380828
H        0.11203000       1.73481000       2.31359000       0.00000450      -0.00016146       0.00004045       0.07268692
H        1.91687000       0.04161000       2.45244000      -0.00013329      -0.00009484       0.00007275       0.11553982
H        0.89915000      -1.04598000       3.37192000       0.00000714      -0.00000884      -0.00006892       0.08967985
H        2.56862000       0.70409000      -1.64808000       0.00005465       0.00011413       0.00000316       0.11184193
H        2.25228000       0.98415000       0.08011000       0.00005185      -0.00018275       0.00024014       0.10190015
H        3.98907000      -1.57417000      -2.14543000       0.00002676       0.00000544       0.00010063       0.08822813
H        3.45605000      -2.92007000      -1.13262000       0.00005822      -0.00019260       0.00001592       0.08224110
H        2.28244000      -2.00507000      -2.12423000       0.00002164       0.00004334       0.00006480       0.08183469
H       -0.89452000      -2.52239000      -0.73547000      -0.00004110       0.00005673      -0.00000423       0.06748300
H       -3.21312000      -3.22244000      -1.16553000       0.00005369       0.00017031       0.00006296       0.05100471
H       -5.08409000      -1.70321000      -0.63833000      -0.00010065      -0.00007303      -0.00002852       0.04882431
H       -4.62702000       0.52726000       0.31379000      -0.00004147       0.00002147       0.00003755       0.05269101
H       -2.31541000       1.24254000       0.72624000      -0.00004691       0.00004674       0.00001348       0.07149433
H       -0.14330000       0.96178000       0.42549000       0.00031471       0.00059083      -0.00021225       0.27733078
