22
Properties=species:S:1:pos:R:3:forces:R:3:charge:R:1 charge=0 spin=1 energy=-1217.7549083316865 dipole="0.359355147534788 0.052721702093984385 -0.20101760616665887" pbc="F F F"
C       -1.72636000      -0.90188000      -1.90439000       0.00007506      -0.00016982      -0.00002704       0.02297928
O       -1.84892000       0.01928000      -0.83801000       0.00020715       0.00006228       0.00013236      -0.40710704
S       -1.34571000      -0.40022000       0.62701000      -0.00010351      -0.00005924      -0.00007758       1.28797395
O       -2.10939000       0.36487000       1.55370000      -0.00018381       0.00001139       0.00016793      -0.56200259
O       -1.34495000      -1.83047000       0.71930000       0.00000226       0.00015161      -0.00003771      -0.59679780
C        0.37380000       0.18495000       0.74179000      -0.00001488      -0.00013091      -0.00068567      -0.23960856
C        1.28851000      -0.66351000      -0.08946000       0.00039392       0.00016275       0.00085716       0.00464895
N        2.63631000      -0.66995000       0.47173000      -0.00031661      -0.00007136      -0.00033827      -0.14944450
O        3.47441000      -1.53565000      -0.28899000      -0.00018608      -0.00000128       0.00017989      -0.38474212
N       -0.03910000       1.78539000      -0.50816000       0.00016955       0.00018693       0.00043337       0.13941006
O        0.43466000       1.53943000      -1.53102000       0.00004504      -0.00025339       0.00023454      -0.15548000
O        1.14499000       2.64059000       0.53599000      -0.00030795      -0.00008554       0.00001221      -0.52928473
H       -0.87264000      -0.63038000      -2.52990000       0.00003615      -0.00000437      -0.00005093       0.06632672
H       -1.59868000      -1.90749000      -1.50004000       0.00001143       0.00013554      -0.00001307       0.07373361
H       -2.64282000      -0.85056000      -2.49170000      -0.00003284      -0.00001824       0.00001741       0.08317098
H        0.55375000       0.04743000       1.81115000       0.00015420      -0.00018237       0.00000772       0.10912586
H        1.28600000      -0.29646000      -1.13824000      -0.00011559       0.00013018      -0.00012059       0.06029024
H        0.93007000      -1.69860000      -0.10501000      -0.00007996      -0.00000347      -0.00010473       0.07307101
H        3.05973000       0.25219000       0.37077000      -0.00002888      -0.00002090      -0.00001199       0.16829067
H        3.56978000      -2.33763000       0.24281000       0.00000937       0.00012470      -0.00003636       0.30602458
H        0.85455000       1.43379000       0.88114000       0.00034250      -0.00027708      -0.00039490       0.32387206
H        0.58915000       3.28140000       0.98641000      -0.00007653       0.00031259      -0.00014375       0.30554939
