20
Properties=species:S:1:pos:R:3:forces:R:3:charge:R:1 charge=0 spin=1 energy=-734.3499295321249 dipole="0.5386724475943974 -0.784875363715704 -0.13064573669947582" pbc="F F F"
C        0.94978000      -0.49792000      -0.47743000       0.00022852      -0.00011902       0.00031924       0.02924858
C        2.11195000       0.43458000      -0.38354000      -0.00041854       0.00036432       0.00021399      -0.05735485
C        3.29082000      -0.27559000       0.29042000       0.00020814      -0.00000952      -0.00007190      -0.10415873
C        0.12235000      -0.73341000       0.65523000       0.00041859      -0.00021945      -0.00007013      -0.10873021
C       -0.84159000       0.45265000      -0.18526000      -0.00013498      -0.00032226      -0.00046069       0.35816806
O       -0.89234000       1.52636000       0.41186000      -0.00003912       0.00002418       0.00007316      -0.52302528
O       -1.90047000      -0.26790000      -0.70259000      -0.00046514       0.00007242       0.00005320      -0.31918692
C       -2.93758000      -0.46950000       0.24509000       0.00010468       0.00047660      -0.00004780       0.03934361
H       -0.14763000       0.49269000      -1.19899000       0.00002540       0.00004187      -0.00013512       0.04482868
H        0.93574000      -1.21525000      -1.28910000      -0.00020365       0.00027673       0.00004553       0.07190178
H        1.81511000       1.30061000       0.21309000       0.00015956      -0.00026543      -0.00018730       0.07748421
H        2.41629000       0.77751000      -1.37381000      -0.00008913      -0.00002601       0.00004197       0.05114150
H        4.13260000       0.40656000       0.36965000       0.00000381       0.00000898       0.00001171       0.05514133
H        3.59969000      -1.14109000      -0.29143000       0.00000101      -0.00002819      -0.00000215       0.04387020
H        3.01813000      -0.60898000       1.28793000      -0.00004056      -0.00003572       0.00003718       0.05024771
H        0.41378000      -0.30088000       1.60047000       0.00004191       0.00007102       0.00009418       0.07107160
H       -0.39439000      -1.67868000       0.72628000      -0.00010441      -0.00003155       0.00006619       0.05206061
H       -2.63689000      -1.18001000       1.02128000      -0.00001919      -0.00006612       0.00020620       0.03988307
H       -3.20560000       0.48100000       0.71206000       0.00014543      -0.00015316      -0.00000940       0.06164075
H       -3.77879000      -0.86607000      -0.31861000       0.00017767      -0.00005967      -0.00017806       0.06642433
