14
Properties=species:S:1:pos:R:3:forces:R:3:charge:R:1 charge=0 spin=1 energy=-870.8247809736226 dipole="-1.0539582188334629 -1.1112036404711143 -0.23751763879881832" pbc="F F F"
O       -1.32587000       1.60929000       0.87713000       0.00023270      -0.00031151      -0.00036561      -0.28219588
C       -0.71343000       0.87328000       0.18889000      -0.00051859      -0.00001838       0.00040445       0.31076935
O       -1.47166000      -0.13455000      -0.70621000       0.00012505       0.00013385       0.00007162      -0.26544138
C       -2.43973000      -1.04449000      -0.16863000       0.00000624       0.00033986       0.00026693       0.01206722
C        0.60281000       0.59107000      -0.28533000       0.00015952      -0.00003251       0.00017220      -0.00464652
F        1.43092000       1.68551000      -0.39365000       0.00009964       0.00012152      -0.00003779      -0.22002121
C        1.33370000      -0.62020000       0.08321000      -0.00001838      -0.00003130      -0.00014681       0.34339342
O        2.52514000      -0.75958000       0.05651000      -0.00025887       0.00003724       0.00005205      -0.39185854
O        0.49848000      -1.65338000       0.42788000       0.00010892       0.00015331      -0.00008792      -0.44152377
H       -0.38865000      -0.29248000      -1.17334000      -0.00007137      -0.00017708      -0.00016249       0.34208768
H       -1.94345000      -1.86186000       0.35389000       0.00000228       0.00003323      -0.00006551       0.08221092
H       -3.03746000      -1.41972000      -0.99730000      -0.00003248      -0.00006893       0.00002431       0.08569837
H       -3.06539000      -0.47938000       0.52181000       0.00010864      -0.00008712      -0.00019484       0.09647424
H        1.04775000      -2.40840000       0.68637000       0.00005670      -0.00009218       0.00006941       0.33298609
