19
Properties=species:S:1:pos:R:3:forces:R:3:charge:R:1 charge=0 spin=1 energy=-914.7821995735055 dipole="0.14539571081006647 0.43170969779845086 -0.4364999210513064" pbc="F F F"
C        0.86915000       1.73767000       0.28850000      -0.00000062      -0.00008969       0.00017864       0.01612899
C        1.13325000       2.06855000      -1.13291000       0.00028785      -0.00014891       0.00009214      -0.10946864
C        1.05338000       0.44263000       0.85029000       0.00009315       0.00030105       0.00000189       0.01300005
Br       1.98299000      -0.87917000      -0.18227000       0.00003018      -0.00003121      -0.00002855      -0.16867147
C       -0.71499000       0.47872000       0.87286000       0.00001872      -0.00027970       0.00020158       0.22627033
O       -1.11642000       0.55093000       2.03542000       0.00003960      -0.00004271      -0.00013216      -0.47830928
C       -1.14933000      -0.57778000      -0.14506000      -0.00004800      -0.00025627       0.00017362      -0.09476175
C       -2.60040000      -0.28857000      -0.47477000      -0.00034378       0.00003726      -0.00011236       0.36933890
O       -2.98190000       0.72790000      -0.98809000       0.00011009      -0.00016306       0.00008279      -0.40553100
O       -3.40075000      -1.29296000      -0.13882000       0.00039524       0.00002272       0.00004496      -0.35491997
H       -0.83358000       1.49491000       0.25464000      -0.00022771       0.00029703      -0.00020199       0.06075858
H        0.80198000       2.56129000       0.98795000       0.00012701       0.00000341      -0.00001703       0.08165942
H        0.89650000       1.24062000      -1.79808000      -0.00000733       0.00001312      -0.00003781       0.07986717
H        2.20275000       2.27147000      -1.23796000      -0.00011809      -0.00002036      -0.00000263       0.09209645
H        0.58700000       2.95424000      -1.44736000      -0.00008617       0.00015137      -0.00008141       0.06997934
H        1.34843000       0.35981000       1.88814000      -0.00001893      -0.00005468      -0.00004396       0.08070524
H       -0.57720000      -0.52046000      -1.06977000      -0.00001857       0.00000798       0.00005726       0.08600195
H       -1.05504000      -1.56561000       0.30627000      -0.00001913       0.00015977      -0.00012381       0.09715920
H       -4.32939000      -1.07956000      -0.32591000      -0.00021352       0.00009287      -0.00005117       0.33869647
