23
Properties=species:S:1:pos:R:3:forces:R:3:charge:R:1 charge=0 spin=1 energy=-1411.2652838511965 dipole="0.38900488101808695 0.3980351493273021 1.130196627591164" pbc="F F F"
O       -2.15160000       3.69056000      -0.13818000      -0.00024198      -0.00070645      -0.00010100      -0.30862971
C       -2.48602000       2.54617000      -0.28703000       0.00032934       0.00063421       0.00012858       0.20933010
C       -1.60582000       1.37948000      -0.08249000      -0.00026491       0.00015764      -0.00005646       0.00445837
C       -0.26789000       1.60421000       0.23685000       0.00009993      -0.00021427      -0.00009174      -0.04363885
C        0.56608000       0.51731000       0.41788000       0.00021317       0.00025672       0.00007085       0.19835087
O        3.28946000      -0.60235000       0.45801000      -0.00064114       0.00049955      -0.00104789      -0.47428152
N        2.99169000      -0.06341000      -0.61367000      -0.00022665      -0.00030408       0.00064647       0.72050364
O        3.55223000      -0.25696000      -1.64195000       0.00001975       0.00012921       0.00009679      -0.35945039
O        2.00167000       0.77106000      -0.58861000       0.00087400      -0.00033133      -0.00028444      -0.40033026
C        0.09381000      -0.78654000       0.34481000      -0.00001224      -0.00038449       0.00010429      -0.06056283
C       -1.24764000      -0.99593000       0.03131000      -0.00040919      -0.00013634       0.00001969      -0.01997750
C       -1.82976000      -2.37347000      -0.09449000       0.00006796      -0.00009633      -0.00003054       0.35776277
O       -2.80578000      -2.59381000      -0.75244000       0.00012667       0.00001899       0.00016050      -0.35286942
O       -1.21524000      -3.35176000       0.58366000      -0.00021775       0.00009478      -0.00022246      -0.36107639
C       -2.09484000       0.08263000      -0.19270000      -0.00006095      -0.00008726      -0.00007260      -0.03449999
O        1.60853000       0.68779000       1.80771000      -0.00050445      -0.00051931       0.00021379      -0.40789982
H       -3.51315000       2.27628000      -0.59287000       0.00000577       0.00000332      -0.00000312       0.03674764
H        0.09154000       2.61891000       0.29355000       0.00004125       0.00015477       0.00001550       0.09587275
H        0.78082000      -1.61078000       0.47645000      -0.00013002       0.00016251      -0.00000788       0.06734473
H       -0.47794000      -3.03960000       1.12441000       0.00011362       0.00005836       0.00007666       0.32587992
H       -3.12563000      -0.10842000      -0.44536000       0.00003670       0.00000386       0.00000813       0.08270675
H        2.40583000       0.09490000       1.51627000       0.00083091       0.00012084       0.00024618       0.38379844
H        1.89495000       1.61316000       1.85294000      -0.00004979       0.00048510       0.00013070       0.34046068
