25
Properties=species:S:1:pos:R:3:forces:R:3:charge:R:1 charge=0 spin=1 energy=-1327.1937969027072 dipole="-0.12993415907966413 -0.9799017204247602 0.23409907695848584" pbc="F F F"
O        0.33286000      -2.04794000       0.38879000      -0.00048242      -0.00025651      -0.00031786      -0.25510682
N       -0.29126000      -0.86462000       0.60956000       0.00021687       0.00011356       0.00000161      -0.13420271
C       -0.98206000      -0.41942000      -0.54147000       0.00015352      -0.00023565       0.00015785       0.13975264
O       -2.39174000      -0.61305000      -0.32187000      -0.00024667       0.00007631      -0.00001253      -0.22802732
C       -3.16789000       0.45393000      -0.27361000       0.00015824      -0.00021677       0.00008604       0.33840346
O       -2.81479000       1.59508000      -0.40589000       0.00000568       0.00012482      -0.00007638      -0.37254663
C       -4.64120000       0.04841000      -0.02588000       0.00016058      -0.00007192      -0.00023618       0.22528998
C       -5.33789000       1.00300000       0.88819000       0.00005894       0.00005074       0.00011046      -0.14441940
O       -5.12535000      -0.91376000      -0.55073000      -0.00001369       0.00012890       0.00008996      -0.29052328
C        2.25458000      -0.47978000       0.20891000       0.00009939      -0.00010239       0.00001631      -0.20171921
S        3.75304000       0.44445000       0.04523000      -0.00044569      -0.00027415      -0.00128664       0.95739551
C        4.97492000      -0.77195000      -0.52301000       0.00001531      -0.00000251       0.00012560      -0.19304651
O        3.55155000       1.40704000      -1.01154000       0.00005213      -0.00013304       0.00012118      -0.54045617
O        4.14951000       0.92351000       1.34248000       0.00043280       0.00040264       0.00122768      -0.53747556
H        0.66038000      -2.35412000       1.25011000       0.00003376      -0.00022956       0.00039325       0.33858478
H       -0.72077000      -0.98941000      -1.44285000       0.00003621       0.00000287      -0.00002109       0.06718197
H       -0.81451000       0.65875000      -0.67330000       0.00002521       0.00015969      -0.00000314       0.09324538
H       -5.15425000       2.01878000       0.54293000       0.00001031      -0.00015054      -0.00002723       0.10189965
H       -4.91050000       0.91609000       1.88647000      -0.00007104      -0.00003231      -0.00001575       0.09216759
H       -6.40238000       0.78975000       0.92446000      -0.00016906       0.00005409       0.00007735       0.08832529
H        1.80773000      -0.41552000       1.17834000      -0.00007605       0.00037898      -0.00011239       0.10821344
H        1.69577000      -0.51771000      -0.70073000       0.00020268       0.00019488      -0.00016530       0.09358547
H        5.91047000      -0.25265000      -0.69044000      -0.00011733      -0.00001760       0.00002536       0.09397865
H        5.08774000      -1.51940000       0.25080000      -0.00003148       0.00005929      -0.00007774       0.07927277
H        4.61146000      -1.20559000      -1.44504000      -0.00000817      -0.00002382      -0.00008040       0.08022703
