25
Properties=species:S:1:pos:R:3:forces:R:3:charge:R:1 charge=0 spin=1 energy=-1299.0175582221561 dipole="-0.1824872219770535 -0.20940427920774704 -0.04677659277216129" pbc="F F F"
C        2.99793000       2.00956000      -0.69125000       0.00027267       0.00020041       0.00000963       0.03436800
O        1.76286000       1.49031000      -0.22518000      -0.00022213      -0.00015465       0.00015025      -0.24689667
C        1.70424000       0.17257000      -0.06468000       0.00024155      -0.00020175      -0.00016245       0.35750317
O        2.61669000      -0.58635000      -0.31554000      -0.00034520       0.00027014       0.00014217      -0.44730949
C        0.40407000      -0.30570000       0.48882000       0.00033089       0.00029348      -0.00000008      -0.09161510
N       -0.10812000      -1.50991000      -0.02415000      -0.00042561      -0.00019785       0.00008385       0.07282781
O        0.32513000      -1.89365000      -1.22318000       0.00001985      -0.00014748      -0.00038995      -0.27349047
C       -0.59074000       0.60837000       1.04154000       0.00002329      -0.00008957      -0.00009261       0.23522781
O       -0.33914000       1.70423000       1.48661000       0.00000373       0.00001866       0.00004362      -0.37288277
C       -2.02419000       0.06468000       1.02568000       0.00001491       0.00025066       0.00021955      -0.12862932
C       -2.49622000       0.18759000      -0.40759000       0.00003404       0.00002443       0.00026129       0.24959769
C       -3.15973000       1.49503000      -0.72333000      -0.00030747       0.00023088       0.00016181      -0.14174705
O       -2.29537000      -0.67903000      -1.22336000      -0.00000790      -0.00022613      -0.00029828      -0.36796057
O        0.72770000      -2.51120000       1.15391000       0.00012655       0.00005708       0.00001740      -0.46556353
H        3.19133000       1.66782000      -1.71061000       0.00001781       0.00000192      -0.00003012       0.06211132
H        2.90039000       3.09134000      -0.66167000      -0.00002519      -0.00014208      -0.00001265       0.07128690
H        3.81596000       1.67821000      -0.04812000      -0.00006115       0.00001790      -0.00005734       0.06329951
H       -0.33909000      -2.51838000      -1.56889000       0.00013385       0.00011259       0.00013509       0.34693547
H       -2.62994000       0.67274000       1.69408000       0.00005758      -0.00010360      -0.00008853       0.07835623
H       -2.01510000      -0.98122000       1.32370000      -0.00003838      -0.00004462       0.00001077       0.09020076
H       -4.11432000       1.55374000      -0.20341000       0.00022087       0.00000145      -0.00012677       0.07419720
H       -3.32642000       1.59345000      -1.79271000       0.00002518       0.00003593      -0.00005973       0.06955419
H       -2.53154000       2.30817000      -0.36368000      -0.00006185      -0.00007147      -0.00006561       0.08193776
H        0.84367000      -1.26864000       1.48134000      -0.00003259      -0.00011647       0.00011639       0.32607826
H        1.56674000      -2.81497000       0.77767000       0.00000470      -0.00001986       0.00003231       0.32261289
