23
Properties=species:S:1:pos:R:3:forces:R:3:charge:R:1 charge=0 spin=1 energy=-960.7162572163899 dipole="-1.279489402962694 -0.0022591770844399067 0.0876716837876334" pbc="F F F"
C       -1.41609000       0.40554000       0.27871000       0.00020515      -0.00025757      -0.00047391      -0.03222325
C       -1.86267000      -0.93872000      -0.11036000      -0.00038937       0.00015218       0.00058116       0.23273620
C       -2.98972000      -1.49606000       0.71706000       0.00007721      -0.00045051      -0.00026991      -0.14118754
O       -1.35682000      -1.54162000      -1.03668000       0.00005355       0.00053759       0.00028264      -0.37533037
C       -0.59057000       1.20319000      -0.58784000      -0.00006662       0.00017038      -0.00029886      -0.02381814
C       -0.68048000       2.70534000      -0.52731000      -0.00023322       0.00017091       0.00050435      -0.10620127
C        0.66330000       0.63841000       0.40296000       0.00030229       0.00011138      -0.00018844       0.22079794
O        1.15577000       1.51353000       1.13317000      -0.00006768       0.00015435      -0.00004048      -0.45427126
C        1.45246000      -0.29219000      -0.52548000       0.00000433       0.00005276       0.00011636      -0.09472429
C        2.47397000      -1.07307000       0.25829000      -0.00009680      -0.00012271       0.00016774       0.22422232
O        3.58309000      -1.30055000      -0.12184000       0.00027585       0.00004896      -0.00008189      -0.29344022
H        0.04787000      -0.18112000       1.05710000      -0.00003762      -0.00029760       0.00021802       0.05357142
H       -1.86262000       0.87171000       1.14546000      -0.00013706      -0.00043075      -0.00004256       0.07923459
H       -3.25249000      -2.48977000       0.36512000      -0.00012799      -0.00008692       0.00008904       0.07832786
H       -3.85754000      -0.84347000       0.64106000      -0.00005199       0.00019208      -0.00002836       0.07284647
H       -2.69509000      -1.54381000       1.76354000       0.00016719       0.00025399      -0.00007839       0.07098205
H       -0.49138000       0.81719000      -1.59805000      -0.00005175       0.00006945       0.00017066       0.06510513
H       -1.56289000       3.05133000      -1.06201000       0.00009488      -0.00003099      -0.00004961       0.05080927
H        0.20166000       3.14373000      -0.98659000       0.00013882       0.00006642      -0.00008260       0.06596519
H       -0.72173000       3.04228000       0.50485000      -0.00000340      -0.00012308      -0.00032971       0.06755368
H        1.95217000       0.30712000      -1.28917000       0.00010859      -0.00005616       0.00002790       0.09671535
H        0.78416000      -1.01367000      -1.00589000      -0.00011415      -0.00014831      -0.00006754       0.11224288
H        2.10031000      -1.44724000       1.23120000      -0.00005020       0.00002416      -0.00012559       0.03008599
