14
Properties=species:S:1:pos:R:3:forces:R:3:charge:R:1 charge=0 spin=1 energy=-857.1016129841339 dipole="-0.12658960121130952 0.711511057947134 -0.590668094805289" pbc="F F F"
N        1.01223000       2.26670000       0.60815000       0.00047933      -0.00024572      -0.00002484      -0.31556147
C        0.14050000       2.05197000      -0.47218000      -0.00046683       0.00002973       0.00041523       0.05420699
N        0.19810000       0.65141000      -1.03763000       0.00205436       0.00035618       0.00020252      -0.32267721
S       -0.34860000      -0.62736000       0.16155000      -0.00023755       0.00024898       0.00014765       1.43928283
O       -0.46636000      -1.92518000      -0.38763000      -0.00018606      -0.00027232      -0.00007859      -0.52813406
O       -0.10211000      -0.28580000       1.51404000      -0.00047926      -0.00021987       0.00035383      -0.53351274
Cl      -2.29598000       0.03859000      -0.05666000       0.00055490      -0.00012997      -0.00001259      -0.32952620
Cl       2.15376000      -0.89453000      -0.12960000       0.00031471      -0.00001176      -0.00006570      -0.55121197
H        1.98189000       2.09128000       0.37535000      -0.00012067       0.00000461      -0.00010206       0.18133408
H        0.76425000       1.72404000       1.42653000      -0.00033385       0.00046826      -0.00014720       0.18534652
H       -0.89319000       2.24221000      -0.16537000       0.00015808      -0.00020294      -0.00016868       0.09287460
H        0.40592000       2.71903000      -1.29988000       0.00000005       0.00002889       0.00007470       0.09693385
H       -0.33839000       0.55275000      -1.89914000      -0.00028583      -0.00017657      -0.00004508       0.23036860
H        1.30725000       0.20881000      -1.02772000      -0.00145138       0.00012249      -0.00054920       0.30027617
