28
Properties=species:S:1:pos:R:3:forces:R:3:charge:R:1 charge=0 spin=1 energy=-1216.758788108654 dipole="1.015587379570643 0.7075752664634699 -0.6746239643189761" pbc="F F F"
O       -3.68219000      -0.35544000      -0.70819000      -0.00010722       0.00036612      -0.00033029      -0.32776810
N       -2.83890000      -1.16594000      -0.27082000       0.00133591      -0.00010655      -0.00000243       0.10455991
C       -1.65576000      -0.86557000      -0.14730000      -0.00102311       0.00016129       0.00046228      -0.00789455
C       -1.49341000       1.05208000      -0.62623000      -0.00010445      -0.00067682       0.00057518      -0.06095851
N       -1.22886000       1.56105000       0.71327000      -0.00002034       0.00000701      -0.00007115      -0.18525695
N       -0.52534000       2.77759000       0.80772000       0.00033167      -0.00007672      -0.00019678      -0.19421137
C        0.76285000       2.84227000       0.13354000      -0.00027152      -0.00005276       0.00019606      -0.03227265
C       -0.52635000      -1.55355000       0.45899000       0.00037051       0.00005341      -0.00104620       0.23754198
O       -0.70718000      -2.44610000       1.26063000      -0.00008237       0.00006111       0.00023977      -0.34264761
C        0.82679000      -1.06724000       0.08268000       0.00003085       0.00005614       0.00052056      -0.00777569
C        1.17220000      -0.85556000      -1.25049000      -0.00049409       0.00000795       0.00025753      -0.02653575
C        2.44281000      -0.41190000      -1.57133000       0.00031319       0.00017571      -0.00022652      -0.02626454
C        3.36856000      -0.16839000      -0.56936000       0.00000164      -0.00009384      -0.00000412      -0.02260491
C        3.03516000      -0.39761000       0.75627000       0.00015977       0.00010038       0.00023777      -0.02507680
C        1.77281000      -0.85818000       1.08248000      -0.00003912      -0.00009184      -0.00021018      -0.01822111
H       -2.73359000       0.65772000      -0.76397000      -0.00043149       0.00008168       0.00014723       0.23328375
H       -1.85489000       1.93149000      -1.20284000       0.00029423       0.00006099      -0.00026312       0.06741439
H       -0.61171000       0.73028000      -1.20180000      -0.00006281      -0.00022280      -0.00026922       0.04112781
H       -0.74643000       0.88142000       1.29491000      -0.00001858      -0.00000292       0.00005481       0.14290994
H       -1.13768000       3.52219000       0.48302000      -0.00004358       0.00003850       0.00001536       0.14129403
H        1.22637000       3.78961000       0.39969000       0.00004302       0.00008519      -0.00002797       0.04570362
H        0.71370000       2.77347000      -0.96242000      -0.00001891       0.00004880      -0.00007705       0.00926892
H        1.38994000       2.03052000       0.50453000       0.00005722      -0.00003060       0.00005280       0.03611459
H        0.46111000      -1.07902000      -2.03396000      -0.00015424       0.00005722       0.00002337       0.03773727
H        2.71116000      -0.25543000      -2.60547000       0.00000568      -0.00000169      -0.00001278       0.04107394
H        4.35457000       0.19034000      -0.82356000      -0.00001844       0.00000963      -0.00001357       0.04245384
H        3.76063000      -0.22017000       1.53569000      -0.00005254      -0.00000718      -0.00006416       0.04446831
H        1.49947000      -1.04711000       2.11004000      -0.00000088      -0.00000740       0.00003282       0.05253625
