21
Properties=species:S:1:pos:R:3:forces:R:3:charge:R:1 charge=0 spin=1 energy=-1233.2163926856304 dipole="-0.4202746718360069 -0.6883430126204731 0.5580278507765567" pbc="F F F"
C        2.39462000      -1.88991000      -0.47112000       0.00025850      -0.00010586      -0.00028391      -0.12014819
C        1.46108000      -0.73244000      -0.84760000      -0.00027629       0.00011624      -0.00015969       0.11947211
O        0.13883000      -1.05904000      -0.56290000      -0.00031858       0.00050668       0.00032274      -0.56498609
S       -1.17484000       0.38057000      -0.55367000       0.00112787       0.00116277       0.00048655       1.67573840
O       -0.12691000       1.34871000      -0.71761000      -0.00043622      -0.00115111      -0.00008679      -0.63621532
O       -1.92760000      -0.24491000      -1.58016000      -0.00025857      -0.00049091      -0.00076569      -0.59155669
O       -2.31258000       1.34156000       0.12298000      -0.00028744       0.00056357       0.00017007      -0.60586002
C        1.93405000       0.50321000      -0.10935000       0.00038530       0.00042587      -0.00004261       0.29763758
O        2.70042000       1.32465000      -0.47164000      -0.00013860      -0.00049624       0.00025821      -0.28205799
Cl       1.40134000       0.48519000       1.58049000       0.00009118       0.00014075      -0.00018277      -0.17433856
O       -1.33538000      -0.59825000       1.04626000       0.00029294      -0.00037597      -0.00038966      -0.41183934
C       -2.54772000      -1.33575000       1.09309000       0.00004453      -0.00036875      -0.00036509       0.00257651
H        2.34052000      -2.07659000       0.59897000      -0.00002917      -0.00002457       0.00006382       0.06733085
H        3.41625000      -1.64343000      -0.74507000      -0.00000308       0.00000838       0.00000771       0.06510844
H        2.08023000      -2.78179000      -1.00555000      -0.00003924       0.00012086       0.00010379       0.07689030
H        1.54814000      -0.50558000      -1.91945000      -0.00018876      -0.00000738       0.00018856       0.06342459
H       -1.93968000       2.17577000       0.41250000      -0.00006798      -0.00025263      -0.00004169       0.35031363
H       -0.46313000      -1.14603000       0.63110000      -0.00020169       0.00015295       0.00032299       0.39431517
H       -2.44965000      -2.09955000       1.86503000      -0.00009698      -0.00015572       0.00015521       0.09451344
H       -3.35099000      -0.64407000       1.34470000       0.00015436       0.00002137      -0.00002075       0.09647198
H       -2.75353000      -1.78850000       0.12240000      -0.00001208       0.00020968       0.00025899       0.08320919
