33
Properties=species:S:1:pos:R:3:forces:R:3:charge:R:1 charge=0 spin=1 energy=-1361.7848743828047 dipole="-0.11476316973692298 0.2278724007527559 -0.34767422721385266" pbc="F F F"
C       -1.75274000       2.43323000      -1.24202000      -0.00006227      -0.00013387      -0.00033875      -0.04113507
N       -2.81361000       1.60483000      -0.70304000      -0.00050890       0.00003557      -0.00019766      -0.23263075
C       -2.41430000       0.44671000       0.02348000       0.00072377       0.00051416       0.00048233       0.15294640
N       -1.42383000       0.67049000       0.94477000       0.00049726      -0.00013859       0.00001161      -0.14717779
C       -0.45145000      -0.30418000       1.09294000      -0.00051616       0.00047737       0.00021194      -0.00037883
S        0.22393000      -0.69792000      -0.67064000       0.00014639      -0.00024474      -0.00011403       0.38032139
O        0.31326000      -2.15613000      -0.76604000      -0.00043453       0.00028209       0.00015338      -0.47521768
C        1.90368000      -0.16308000      -0.21427000      -0.00000398      -0.00002397       0.00001739      -0.03022912
C        2.90100000      -1.09932000      -0.02172000      -0.00014941      -0.00001427      -0.00020354      -0.02559284
C        4.18269000      -0.67715000       0.28826000      -0.00009448       0.00002616      -0.00001058      -0.02737568
C        4.45620000       0.67676000       0.39386000      -0.00009597       0.00007669      -0.00003597      -0.02895126
C        3.45217000       1.61157000       0.18947000      -0.00001349      -0.00021434      -0.00002458      -0.02725185
C        2.17010000       1.19269000      -0.11915000       0.00013053       0.00006690       0.00019260      -0.03713024
N       -2.30509000      -0.76353000      -0.75012000       0.00019545      -0.00070386      -0.00031082      -0.22685253
C       -2.77727000      -2.02103000      -0.20251000      -0.00033261      -0.00008463      -0.00026982      -0.04251991
O       -2.81219000       0.27495000       2.30113000      -0.00006755      -0.00046778      -0.00038207      -0.61647612
H       -1.13498000       2.76014000      -0.40955000       0.00019684       0.00001954       0.00020213       0.06610739
H       -1.12201000       1.90767000      -1.97307000       0.00004656       0.00006249       0.00003257       0.02036886
H       -2.20018000       3.30486000      -1.71528000       0.00001410      -0.00006008       0.00007472       0.05260421
H       -3.51274000       1.37699000      -1.39914000       0.00026269       0.00006096       0.00030980       0.14452823
H       -0.78566000      -1.29360000       1.40796000      -0.00010554      -0.00007773       0.00006439       0.07884951
H        0.34741000       0.05897000       1.73760000       0.00001488      -0.00011883      -0.00008821       0.05667656
H        2.65426000      -2.14608000      -0.11869000       0.00003740       0.00014957       0.00002787       0.06118345
H        4.96672000      -1.40288000       0.44581000       0.00008807      -0.00009141       0.00000514       0.03887807
H        5.45586000       1.00680000       0.63506000      -0.00002507       0.00002303       0.00001574       0.03686583
H        3.67066000       2.66605000       0.27050000      -0.00000235       0.00014323       0.00001557       0.03763462
H        1.37401000       1.90573000      -0.27485000      -0.00014636       0.00010867      -0.00008414       0.03846155
H       -2.56274000      -0.64328000      -1.72101000      -0.00020790       0.00011388      -0.00005854       0.15193517
H       -3.73181000      -2.32753000      -0.63916000       0.00018025      -0.00015557      -0.00019845       0.03103629
H       -2.91004000      -1.92057000       0.87312000       0.00023816       0.00022591      -0.00001269       0.06281930
H       -2.02874000      -2.79059000      -0.40408000      -0.00005060      -0.00012742       0.00023271       0.07460170
H       -3.27223000       0.29691000       0.91439000       0.00005850      -0.00012509       0.00002024       0.24545100
H       -3.02195000       0.29692000       3.24853000      -0.00001366       0.00039595       0.00025969       0.22765013
