22
Properties=species:S:1:pos:R:3:forces:R:3:charge:R:1 charge=0 spin=1 energy=-1084.4792496777573 dipole="-0.5334632695552086 -0.9276591455902254 0.3523753134259598" pbc="F F F"
O        3.08284254       0.57889350       1.66184934      -0.00045829      -0.00001265      -0.00148207      -0.27186179
N        2.76699588       0.48130506       0.43680887       0.00009654      -0.00015687       0.00158337       0.00109229
C        1.52207488      -0.00611015       0.39331917      -0.00006989       0.00023526      -0.00015160      -0.05735817
C        1.33142777      -1.51803753       0.60059328       0.00032489       0.00026232       0.00031097       0.09244599
O        1.37644782      -2.17369975      -0.62980465      -0.00016828      -0.00004480      -0.00013677      -0.40988135
S        0.60880716       0.48588488      -1.17536422       0.00007610       0.00203259      -0.00029682       0.42098368
O        0.76443342       1.93384691      -1.24427872      -0.00010673      -0.00212484       0.00014946      -0.47240719
C       -1.01300177       0.20928380      -0.38863442      -0.00017730      -0.00012434       0.00016676      -0.02540956
C       -1.66376980      -1.00208969      -0.55240202       0.00062809       0.00021076      -0.00029335      -0.03836248
C       -2.90770003      -1.18207692       0.02919404      -0.00037335       0.00013613       0.00053376      -0.02761754
C       -3.48891348      -0.15526643       0.75741519      -0.00040436      -0.00016263      -0.00055168      -0.02723253
C       -2.83469375       1.05777240       0.90281081       0.00071396      -0.00001394      -0.00033250      -0.02680778
C       -1.59136450       1.24338577       0.32369496      -0.00031006      -0.00056926       0.00009122      -0.02476346
H        1.72693672       0.16509695       1.89978973       0.00016729      -0.00023695       0.00011990       0.19852919
H        0.33703547      -1.71502766       1.00575818      -0.00004885       0.00010686      -0.00008991       0.07060989
H        2.09221596      -1.89916077       1.29678544      -0.00047545       0.00020937      -0.00033590       0.04513688
H        2.26388416      -2.12240268      -1.00572731      -0.00005125       0.00009991       0.00019289       0.31046375
H       -1.19646936      -1.78915619      -1.12448473      -0.00016382       0.00013688       0.00024207       0.05371845
H       -3.42647474      -2.12148638      -0.09005281       0.00023492       0.00019658       0.00018430       0.04120542
H       -4.45986107      -0.29938782       1.20750115       0.00047932      -0.00000433      -0.00013927       0.04055131
H       -3.29337211       1.85849696       1.46312415       0.00007557      -0.00014547       0.00018141       0.04301636
H       -1.06325117       2.18216573       0.40191458       0.00001095      -0.00003058       0.00005377       0.06394865
