29
Properties=species:S:1:pos:R:3:forces:R:3:charge:R:1 charge=0 spin=1 energy=-1160.0394477517464 dipole="0.1018362736419774 -0.48207241691058095 0.659786065426669" pbc="F F F"
C        0.53374000       1.47815000       0.36470000       0.00007644      -0.00022684      -0.00014306       0.01652398
C        0.85964000       0.11592000       0.31548000      -0.00014379      -0.00017210       0.00007151      -0.02250369
C        1.74666000      -0.49031000       1.36598000       0.00029495       0.00038269       0.00016739      -0.06609456
C        3.00829000      -1.08886000       0.71628000      -0.00029070      -0.00014463      -0.00018445       0.00995128
N        3.76060000      -0.10722000      -0.04152000       0.00012161       0.00002250       0.00012894      -0.16372319
C        3.30649000       0.25904000      -1.22432000      -0.00018418       0.00001865      -0.00004685       0.15936916
N        2.98166000       0.52439000      -2.29285000       0.00005972      -0.00003558       0.00000648      -0.30257317
C       -0.07122000      -0.73564000      -0.36636000       0.00035323       0.00015107      -0.00015139      -0.04724980
C       -1.49170000      -0.72802000       0.59891000      -0.00002367      -0.00033829      -0.00009730      -0.02512165
C       -2.47496000      -1.60317000      -0.01618000       0.00038954       0.00001301       0.00028044      -0.03728027
C       -3.49620000      -1.10677000      -0.75448000      -0.00005877       0.00032358      -0.00008989      -0.03421835
C       -3.70420000       0.28700000      -0.85085000       0.00022324       0.00006810       0.00021349      -0.02942721
C       -2.87584000       1.16321000      -0.20681000      -0.00016960      -0.00046426      -0.00023048      -0.05517457
C       -1.82640000       0.70375000       0.61590000      -0.00028119       0.00035543       0.00012330       0.16639290
O       -1.00451000       1.50755000       1.19827000      -0.00000070      -0.00001759      -0.00005017      -0.36017850
H        1.12553000       2.13064000       0.99263000       0.00009426       0.00010308       0.00011534       0.06180326
H        0.19306000       1.95123000      -0.54726000      -0.00021849       0.00008658       0.00002716       0.06169157
H        1.22815000      -1.29226000       1.90067000      -0.00008523      -0.00013798       0.00005245       0.04538220
H        2.04205000       0.26827000       2.09426000      -0.00001471      -0.00020046      -0.00017013       0.04169643
H        2.72662000      -1.88822000       0.02642000       0.00001804      -0.00002849       0.00006038       0.05390632
H        3.67158000      -1.50238000       1.48111000       0.00004984       0.00002248       0.00002378       0.04575075
H        4.16821000       0.64026000       0.50570000       0.00011616       0.00011379       0.00001696       0.16995292
H        0.21876000      -1.78034000      -0.42712000      -0.00013196      -0.00004331       0.00000217       0.04873245
H       -0.40244000      -0.36759000      -1.33198000       0.00004288      -0.00003256      -0.00015154       0.05361802
H       -1.10161000      -1.10567000       1.54432000      -0.00009551       0.00002958       0.00008278       0.05284812
H       -2.33629000      -2.66998000       0.08833000      -0.00003746       0.00007106      -0.00000855       0.03298700
H       -4.19161000      -1.77329000      -1.24321000      -0.00007923      -0.00008622      -0.00005278       0.03681290
H       -4.53842000       0.65436000      -1.42978000      -0.00000944       0.00000678      -0.00001109       0.03800793
H       -3.04920000       2.22859000      -0.24917000      -0.00001529       0.00015992       0.00001510       0.04811777
