22
Properties=species:S:1:pos:R:3:forces:R:3:charge:R:1 charge=0 spin=1 energy=-1106.9722564654091 dipole="-0.22982960541594688 -0.28562854627509854 0.1172620529096294" pbc="F F F"
N       -3.65122000       0.02962000      -0.12648000       0.00012241      -0.00004543      -0.00021537      -0.35152533
C       -2.82388000      -0.93336000       0.58542000       0.00026607       0.00009369      -0.00012919       0.00190495
C       -1.82022000      -1.54950000      -0.39029000       0.00000660      -0.00010043      -0.00000472       0.04259557
O       -0.88472000      -0.59205000      -0.92593000      -0.00047915       0.00025096      -0.00013949      -0.21604677
C        0.24400000      -0.18696000       0.03069000      -0.00001391      -0.00013190       0.00002066       0.47941839
O        0.25767000      -0.61990000       1.13380000       0.00006175      -0.00003953       0.00005921      -0.38122496
O        1.20930000       0.18197000      -0.77966000      -0.00022163       0.00005623       0.00002575      -0.22416799
C        2.34124000       0.80695000      -0.17377000       0.00021757       0.00008241      -0.00015550       0.06801357
C        3.23109000      -0.15771000       0.59977000       0.00016109       0.00013875      -0.00001158       0.09183712
F        3.91815000      -0.97185000      -0.26398000       0.00002639      -0.00003655      -0.00007878      -0.24157053
Cl      -0.85728000       1.85339000       0.08868000       0.00015147      -0.00000918      -0.00012978      -0.63837477
H       -3.17986000       0.92992000      -0.16842000      -0.00001019       0.00002099       0.00006004       0.16622915
H       -4.52582000       0.17853000       0.36082000      -0.00020675       0.00003553       0.00007666       0.14670746
H       -3.45524000      -1.74471000       0.95368000      -0.00014715      -0.00015703       0.00009592       0.05652733
H       -2.27577000      -0.50666000       1.43554000       0.00004694       0.00004451       0.00005767       0.05693789
H       -2.34466000      -1.94747000      -1.26151000       0.00004821       0.00005084       0.00003674       0.10051060
H       -1.24144000      -2.33437000       0.10001000      -0.00003225       0.00004913       0.00000456       0.09058258
H        1.99095000       1.59662000       0.49877000      -0.00003793       0.00007037       0.00004989       0.07711896
H        2.89283000       1.24145000      -1.00957000      -0.00005856      -0.00003126       0.00011124       0.10038155
H        3.97765000       0.40161000       1.17172000      -0.00000787      -0.00002035       0.00001487       0.07153555
H        2.64505000      -0.80294000       1.25967000      -0.00011578      -0.00008966       0.00011046       0.08624952
H       -1.30619000       0.38288000      -0.92365000       0.00022268      -0.00023208       0.00014072       0.41636017
