21
Properties=species:S:1:pos:R:3:forces:R:3:charge:R:1 charge=0 spin=1 energy=-1149.8834430276072 dipole="-0.4507471162212466 0.4725939808567695 -0.08049525283479476" pbc="F F F"
O        0.15657000       1.13921000       1.63087000       0.00020462      -0.00013220      -0.00010129      -0.42931059
C        0.70401000       0.84461000       0.49328000      -0.00005757       0.00038299       0.00034080       0.32337547
O        0.72916000       1.63292000      -0.52525000       0.00017985      -0.00015110      -0.00003896      -0.17618339
C        0.01222000       2.85910000      -0.43032000      -0.00019450       0.00012428       0.00002489       0.01892792
C        1.39858000      -0.39610000       0.68781000       0.00003502      -0.00009526      -0.00012187      -0.09131911
Cl       2.79624000      -0.64182000      -0.40456000      -0.00005251      -0.00006697       0.00006712      -0.24030091
C        0.48648000      -1.62542000       0.63385000       0.00017712       0.00007535      -0.00009492      -0.06574062
C       -0.26973000      -1.71617000      -0.69565000      -0.00003061      -0.00016548       0.00012144       0.07094673
O       -1.09345000      -0.56073000      -0.88110000       0.00034622      -0.00012577      -0.00026887      -0.26133421
C       -2.21398000      -0.50487000      -0.17661000       0.00012760      -0.00066483       0.00007233       0.48849689
O       -2.64996000      -1.35483000       0.54379000       0.00008362       0.00014515       0.00003015      -0.44680726
O       -2.81062000       0.67382000      -0.39499000      -0.00033337       0.00055083       0.00003249      -0.38618952
H        0.85959000       0.14264000       2.01762000      -0.00021554       0.00000383      -0.00014966       0.31643186
H        0.45493000       3.53504000      -1.15830000       0.00001112       0.00003052       0.00007680       0.08208266
H       -1.03706000       2.67655000      -0.67028000       0.00006512       0.00004063      -0.00011091       0.08547506
H        0.08936000       3.26418000       0.58093000       0.00002805       0.00000402      -0.00005181       0.07916109
H        1.10131000      -2.51517000       0.76024000       0.00008758      -0.00007075      -0.00005346       0.07825706
H       -0.24952000      -1.60109000       1.44056000      -0.00015689       0.00000671       0.00022851       0.06230521
H       -0.89343000      -2.61466000      -0.71774000      -0.00011413       0.00005185       0.00001327       0.06268331
H        0.41851000      -1.70395000      -1.54134000      -0.00004773       0.00010499      -0.00004846       0.08332882
H       -3.63888000       0.71745000       0.10513000      -0.00014306      -0.00004878       0.00003240       0.34571351
