13
Properties=species:S:1:pos:R:3:forces:R:3:charge:R:1 charge=0 spin=1 energy=-1008.5814532303604 dipole="1.1648846196931042 0.4037857826530285 -0.39220063993953314" pbc="F F F"
O       -0.45030108       1.99387629      -0.76645014       0.00082055      -0.00030547      -0.00046378      -0.28590283
C        0.67806492       1.40033930      -0.65460349      -0.00050948       0.00012214       0.00042362       0.32876390
O        1.50774462       1.53064799      -1.65270580       0.00138203      -0.00083228       0.00030785      -0.29070541
C        0.98577182       0.59757676       0.49150535      -0.00032263       0.00035796       0.00039081       0.10828743
F        0.17058970       0.76575616       1.53345478       0.00050703      -0.00010043      -0.00068114      -0.13981154
Br       0.10557843      -1.46067740      -0.60617740      -0.00002882      -0.00010363      -0.00007350      -0.17351803
C        2.32039442       0.05464469       0.84857869       0.00072626      -0.00046152       0.00070037       0.35678790
O        2.63727493      -0.31132402       1.93860850      -0.00044985       0.00043814      -0.00165037      -0.33306124
O        3.14905744       0.02193657      -0.22137370       0.00115212      -0.00091301       0.00134954      -0.39754710
Br      -2.54200819       0.11079127       0.30513871      -0.00008976      -0.00010267       0.00016527      -0.29702130
H        2.33375655       1.01951411      -1.52600585      -0.00154947       0.00094016      -0.00019105       0.37848613
H        3.98622227      -0.40516819       0.02651596      -0.00173892       0.00095004      -0.00046387       0.35974572
H       -1.22935583       1.53955647      -0.25824561       0.00010092       0.00001059       0.00018627       0.38549639
