26
Properties=species:S:1:pos:R:3:forces:R:3:charge:R:1 charge=0 spin=1 energy=-1040.6610076999743 dipole="0.5612008932635519 0.42090012230373147 0.5745235668755675" pbc="F F F"
C        0.37298000       1.69441000      -1.38975000       0.00013999       0.00001830       0.00001523      -0.12810650
C        0.61692000       1.76185000       0.02024000      -0.00005060       0.00014692       0.00037983       0.07884375
C        1.13640000       3.01049000       0.62042000      -0.00004504      -0.00035684      -0.00014079      -0.11827490
O       -1.90145000       1.94053000      -0.22737000       0.00001785       0.00019448      -0.00014571      -0.51695960
C       -2.05961000       0.68630000      -0.03759000       0.00026456       0.00009321       0.00020653       0.17592648
C       -3.27008000       0.02108000      -0.35152000      -0.00051112      -0.00016576      -0.00020420      -0.06530297
C       -3.39803000      -1.33631000      -0.20698000       0.00018316       0.00007764       0.00005157      -0.03307276
C       -2.33222000      -2.09710000       0.25948000      -0.00024386       0.00014920      -0.00010355      -0.04494770
C       -1.13901000      -1.48059000       0.59235000       0.00011201       0.00024934       0.00004901      -0.04036383
C       -0.98311000      -0.11263000       0.46682000       0.00022698      -0.00022651      -0.00005328      -0.03909424
C        0.24289000       0.64280000       0.93109000      -0.00000214      -0.00003061      -0.00038225      -0.00646148
C        1.47025000      -0.23087000       1.20585000       0.00000292      -0.00018272       0.00007119       0.02851497
Br       2.13067000      -1.14310000      -0.38572000      -0.00000348      -0.00001927      -0.00000579      -0.17876037
H       -0.73195000       2.01334000      -1.42162000      -0.00003509       0.00012227       0.00002291       0.20189873
H        0.36870000       0.68479000      -1.79628000      -0.00006079      -0.00010863      -0.00014944       0.08886484
H        0.95235000       2.39071000      -1.98599000      -0.00012513       0.00004473      -0.00006257       0.06888173
H        1.58764000       2.83773000       1.59667000      -0.00000557       0.00004219       0.00000522       0.05428683
H        1.85441000       3.49511000      -0.03852000       0.00004805       0.00004223       0.00003245       0.06769513
H        0.30561000       3.70572000       0.76162000      -0.00005534       0.00003318       0.00000885       0.10129170
H       -4.07736000       0.62211000      -0.74302000       0.00018172      -0.00011165       0.00008427       0.03774122
H       -4.32985000      -1.82047000      -0.46282000      -0.00007359      -0.00003117      -0.00002528       0.02650370
H       -2.43431000      -3.16518000       0.37642000       0.00001471      -0.00014450       0.00003224       0.02489400
H       -0.33675000      -2.10145000       0.96462000       0.00008632      -0.00002300       0.00002860       0.02382489
H       -0.00649000       1.09351000       1.90466000      -0.00012286       0.00013092       0.00024125       0.07042280
H        2.29975000       0.37742000       1.56554000       0.00006637       0.00005120      -0.00003643       0.05495510
H        1.24208000      -1.00560000       1.93552000      -0.00001004       0.00000485       0.00008011       0.06679847
