31
Properties=species:S:1:pos:R:3:forces:R:3:charge:R:1 charge=0 spin=1 energy=-1548.5095223072435 dipole="-0.1688264168759744 0.22149380310249336 0.44978429226552924" pbc="F F F"
C       -2.66291000      -1.25737000       2.18029000       0.00010046       0.00000408       0.00004682      -0.03948461
N       -1.74232000      -0.40780000       1.43751000       0.00000089       0.00010549      -0.00003375      -0.24611869
C       -2.00832000      -0.28696000       0.05439000      -0.00006062      -0.00023912       0.00026129       0.04501893
N       -1.85303000       0.91116000      -0.60030000       0.00015920      -0.00008570      -0.00004320      -0.07408512
C       -1.30105000       2.01151000       0.09538000      -0.00025441       0.00011716       0.00006875      -0.02151894
C        0.23895000       1.90327000       0.12902000       0.00010581      -0.00021795      -0.00003295       0.36826670
O        0.92806000       2.86807000       0.29899000       0.00006956       0.00020297       0.00003766      -0.37644662
O        0.61809000       0.64568000      -0.01017000       0.00000985      -0.00003011      -0.00000846      -0.23273302
C        1.93764000       0.18599000      -0.01270000      -0.00012343       0.00028227       0.00001389       0.13878718
C        2.05794000      -1.20055000      -0.01985000       0.00034848      -0.00005102      -0.00002283      -0.04463231
C        3.31395000      -1.77527000      -0.03411000      -0.00005137      -0.00018461       0.00001487      -0.02501956
C        4.44541000      -0.97521000      -0.04123000      -0.00014050      -0.00020574       0.00001927      -0.03059635
C        4.31434000       0.40183000      -0.03664000      -0.00015176       0.00003997      -0.00001968      -0.02656848
C        3.06231000       0.99569000      -0.02256000       0.00001589      -0.00000621      -0.00002452      -0.05044854
N       -1.68308000      -1.40805000      -0.80071000       0.00012417      -0.00004853      -0.00009614       0.50853701
O       -1.23413000      -2.39859000      -0.24480000      -0.00014845       0.00029045      -0.00016502      -0.41866154
O       -1.90693000      -1.31673000      -1.99112000       0.00003366      -0.00008266       0.00020722      -0.40584193
O       -3.61080000       1.21240000      -0.73475000      -0.00006937      -0.00004762      -0.00017822      -0.47595504
H       -2.38828000      -1.21644000       3.23218000      -0.00001155       0.00001061      -0.00007422       0.04999538
H       -2.64794000      -2.30294000       1.85403000      -0.00002794      -0.00001213      -0.00000668       0.04075135
H       -3.67331000      -0.86228000       2.06892000      -0.00006402      -0.00001993      -0.00001502       0.04062864
H       -0.78306000      -0.69283000       1.61428000      -0.00001768      -0.00001242      -0.00005224       0.15908965
H       -1.62752000       2.06949000       1.14399000       0.00005033      -0.00001285      -0.00009419       0.08964336
H       -1.55020000       2.93641000      -0.42637000       0.00002060      -0.00001150       0.00001362       0.10142118
H        1.16972000      -1.81354000      -0.02196000      -0.00017575      -0.00010252       0.00000188       0.07077429
H        3.40628000      -2.85035000      -0.04131000       0.00000071       0.00015828       0.00000174       0.05135000
H        5.42631000      -1.42552000      -0.05238000       0.00005735       0.00000587      -0.00000610       0.04542852
H        5.19226000       1.02975000      -0.04503000       0.00016733       0.00014350       0.00000882       0.04789414
H        2.96896000       2.06868000      -0.01837000       0.00002316      -0.00004384       0.00001258       0.07586362
H       -3.39463000       0.04802000      -0.20351000      -0.00002775       0.00005317      -0.00005526       0.31865770
H       -3.89339000       1.24015000      -1.65705000       0.00003711       0.00000064       0.00022008       0.31600310
