32
Properties=species:S:1:pos:R:3:forces:R:3:charge:R:1 charge=0 spin=1 energy=-1379.043635994045 dipole="-0.11146270625255476 0.804567753433371 0.1928178418913523" pbc="F F F"
C       -2.71853000      -1.85335000      -0.43063000      -0.00020795       0.00024051      -0.00007622      -0.03760357
N       -2.14635000      -0.96700000       0.52029000      -0.00005663      -0.00079670      -0.00001248      -0.11617344
C       -0.93197000      -0.44154000       0.38934000      -0.00031405       0.00079098      -0.00025241       0.14614530
O       -0.71356000       0.81995000       0.90867000       0.00037648      -0.00044121       0.00025232      -0.29476244
C       -1.87338000       1.57966000       1.19476000      -0.00042414       0.00001553      -0.00027079       0.14485193
N       -2.66198000       1.76842000       0.00808000       0.00011916       0.00050948       0.00000241      -0.25644468
C       -2.13071000       2.75885000      -0.90673000      -0.00035179      -0.00001980      -0.00013593      -0.03052560
S        0.03589000      -0.51892000      -1.25899000      -0.00014309       0.00035719       0.00006467       0.39012690
O        0.19245000      -1.92939000      -1.62580000       0.00017477      -0.00034022      -0.00010473      -0.47577931
C        1.60880000      -0.04519000      -0.48754000       0.00010818      -0.00042734      -0.00005448      -0.01874605
C        2.47957000      -1.04456000      -0.09460000       0.00003118       0.00030362       0.00019582      -0.02612943
C        3.68751000      -0.70440000       0.48774000      -0.00006641      -0.00037275      -0.00007208      -0.02600138
C        4.01447000       0.63012000       0.66749000      -0.00010934       0.00030189       0.00002312      -0.02721031
C        3.14012000       1.62531000       0.25993000       0.00027520      -0.00020306       0.00007464      -0.02586973
C        1.93207000       1.29006000      -0.32688000       0.00001109       0.00028287      -0.00003140      -0.02896009
O       -1.27371000      -2.17952000       1.80046000       0.00039792       0.00086092       0.00116463      -0.59923447
H       -3.16048000      -1.22582000      -1.21119000       0.00012710      -0.00006073       0.00006351       0.07541572
H       -3.51659000      -2.40758000       0.06005000       0.00003340       0.00018028      -0.00007758       0.07110467
H       -2.00752000      -2.53918000      -0.89302000       0.00004281      -0.00008495       0.00008653       0.07348219
H       -1.46802000       2.51509000       1.61716000       0.00024902       0.00004867      -0.00014476       0.03501837
H       -2.47634000       1.05631000       1.94376000      -0.00009675       0.00010973       0.00029009       0.05132000
H       -3.62530000       1.96678000       0.24501000       0.00015271      -0.00044576      -0.00016718       0.14739077
H       -2.77368000       2.81187000      -1.78257000       0.00010904       0.00000548       0.00018985       0.04657345
H       -1.13828000       2.44013000      -1.22335000      -0.00001667       0.00000401       0.00002299       0.04705512
H       -2.05038000       3.76064000      -0.45949000       0.00005395      -0.00001258       0.00006747       0.01907118
H        2.19944000      -2.07449000      -0.26004000      -0.00000677      -0.00005915      -0.00003086       0.06463390
H        4.37220000      -1.47837000       0.80075000      -0.00011214       0.00011341      -0.00004327       0.04235984
H        4.95676000       0.89632000       1.12304000      -0.00001146      -0.00001071      -0.00003113       0.03959019
H        3.40263000       2.66386000       0.39610000      -0.00003859       0.00003866      -0.00001102       0.03992724
H        1.24436000       2.05602000      -0.64921000      -0.00007660       0.00001598      -0.00003442       0.04149325
H       -0.36880000      -1.28866000       1.13413000      -0.00003965      -0.00049444      -0.00020562       0.25317234
H       -1.39515000      -2.91817000       2.42015000      -0.00018997      -0.00040982      -0.00074170       0.23470814
