20
Properties=species:S:1:pos:R:3:forces:R:3:charge:R:1 charge=0 spin=1 energy=-1071.927346606627 dipole="0.14298439816482578 -0.49783014604310943 0.16626449210077757" pbc="F F F"
C       -1.34236000       0.57724000       1.88261000       0.00011873      -0.00011359       0.00011851       0.01522991
O       -1.31045000       1.36595000       0.70220000      -0.00008411       0.00026903      -0.00009506      -0.26214075
C       -0.60225000       0.83769000      -0.34533000       0.00016415      -0.00026766       0.00017338      -0.01184223
N       -1.85960000      -0.30396000      -1.28867000      -0.00000006       0.00000127      -0.00005264       0.11937727
O       -2.88943000      -0.24481000      -0.74990000       0.00007366       0.00001420       0.00006972      -0.18381128
S        1.32031000       0.91240000       0.07042000       0.00021315       0.00050356      -0.00057545       0.50222913
O        1.81922000       1.95081000      -0.81506000      -0.00029377      -0.00053815       0.00049352      -0.46109719
C        1.82426000      -0.69156000      -0.74197000       0.00031033       0.00018628       0.00014655      -0.13541343
C        1.46352000      -1.79808000       0.19906000       0.00004997      -0.00014585      -0.00029306       0.21960414
O        1.24898000      -1.60457000       1.36854000      -0.00012399       0.00012721       0.00028157      -0.34838212
O       -0.79479000      -1.70326000      -0.56979000      -0.00010029      -0.00007306       0.00016529      -0.57748540
H       -0.35543000       0.17361000       2.12381000      -0.00003560       0.00002620      -0.00002166       0.05783353
H       -2.05950000      -0.24331000       1.78846000      -0.00003281      -0.00007823      -0.00005660       0.05248759
H       -1.67176000       1.23991000       2.67962000       0.00000790      -0.00000687      -0.00003973       0.07514402
H       -0.62780000       1.54860000      -1.17300000      -0.00000318       0.00019045      -0.00012766       0.10424066
H        2.90908000      -0.63779000      -0.84683000      -0.00022935       0.00001769      -0.00002941       0.10128346
H        1.37734000      -0.80413000      -1.72701000      -0.00002573      -0.00002413      -0.00005097       0.10414274
H        1.48369000      -2.81157000      -0.23241000      -0.00006542      -0.00002335      -0.00003300       0.05089589
H       -0.50530000      -0.47362000      -0.29862000      -0.00000293      -0.00008335       0.00001735       0.29182860
H       -1.30539000      -2.12710000       0.12573000       0.00005935       0.00001835      -0.00009065       0.28587545
