23
Properties=species:S:1:pos:R:3:forces:R:3:charge:R:1 charge=0 spin=1 energy=-1066.6623337149124 dipole="-1.298395819065262 -0.10791503831117853 0.9912529600056896" pbc="F F F"
O       -1.07180000      -0.86221000      -0.51630000       0.00019498      -0.00020477       0.00052192      -0.32337784
C       -1.37292000       0.46633000      -0.52516000       0.00000660       0.00001792       0.00021773       0.36100279
O       -0.80661000       1.22070000      -1.26074000      -0.00021987      -0.00000432      -0.00019891      -0.35560540
C       -2.47786000       0.82600000       0.43165000      -0.00018768       0.00016594      -0.00038824      -0.08910480
C       -3.75168000       0.02920000       0.14706000       0.00019767      -0.00018575      -0.00002291      -0.10559310
C        2.31508000       1.67701000       0.85642000      -0.00002960      -0.00022381       0.00027851       0.03756608
O        1.54598000       0.50295000       0.67160000       0.00002449      -0.00004567      -0.00002163      -0.34351356
C        2.03010000      -0.42020000      -0.23077000      -0.00023928      -0.00056857      -0.00036842       0.49505120
O        3.08619000      -0.29224000      -0.78785000      -0.00038049       0.00014854       0.00035691      -0.45107633
O        1.22237000      -1.40040000      -0.38506000      -0.00024406       0.00046479       0.00025609      -0.48076087
C       -0.28586000      -1.70953000       1.07964000       0.00004448      -0.00003989      -0.00045049      -0.01088383
H       -0.17394000      -1.05729000      -0.95895000       0.00051204       0.00005479       0.00013048       0.39381661
H       -2.66897000       1.89516000       0.33862000       0.00009232       0.00010040       0.00011104       0.07458706
H       -2.12879000       0.62067000       1.44647000      -0.00000414      -0.00017204       0.00004524       0.07259658
H       -4.51996000       0.29091000       0.86971000      -0.00005156       0.00003183       0.00011775       0.05441471
H       -4.12363000       0.25688000      -0.84863000      -0.00012046       0.00004885      -0.00006988       0.05260083
H       -3.56507000      -1.04011000       0.20725000       0.00021525       0.00021314      -0.00009126       0.05147873
H        2.41999000       1.84653000       1.92809000      -0.00004685      -0.00006102      -0.00018694       0.04826865
H        3.29570000       1.54704000       0.39395000       0.00014972       0.00004411      -0.00012929       0.07282762
H        1.79566000       2.51607000       0.39018000      -0.00002839       0.00014940      -0.00009885       0.05288492
H        0.11901000      -2.68952000       0.89635000       0.00004440       0.00008913      -0.00003389       0.14331758
H        0.33061000      -1.03428000       1.64822000       0.00016171       0.00004813       0.00003238       0.13813893
H       -1.33075000      -1.71531000       1.36241000      -0.00009128      -0.00007113      -0.00000734       0.11136342
