31
Properties=species:S:1:pos:R:3:forces:R:3:charge:R:1 charge=0 spin=1 energy=-1196.6110997912074 dipole="-0.30139671901106996 0.07462171865743508 -0.15107952545446784" pbc="F F F"
O       -0.99575000      -1.30633000       2.10626000       0.00028042       0.00003753      -0.00050452      -0.45657040
C       -1.41716000      -0.77124000       1.01338000      -0.00004446       0.00009623      -0.00009406       0.18577960
C       -2.72101000      -0.40425000       0.65700000       0.00016562      -0.00012384      -0.00016262      -0.06878370
C       -3.01940000      -0.44168000      -0.68500000       0.00024823      -0.00011094       0.00029459      -0.01597319
C       -2.05933000      -0.77741000      -1.65727000      -0.00047482       0.00006862      -0.00010746      -0.05223716
C       -0.73618000      -0.91949000      -1.32874000       0.00031547       0.00012266      -0.00005705      -0.02021746
C       -0.33792000      -0.81793000       0.03621000       0.00015362       0.00012220       0.00017990      -0.08215281
C        0.91571000       0.04643000       0.35771000      -0.00008506      -0.00014614       0.00035646      -0.04008468
C        2.24044000      -0.67608000       0.27383000       0.00006093      -0.00000187      -0.00016301       0.01869296
C        3.13439000      -0.52558000       1.23930000       0.00019059      -0.00018708      -0.00010784      -0.10665381
C        2.49958000      -1.52231000      -0.93116000       0.00016156      -0.00009824       0.00027509      -0.11382229
C        0.85021000       1.23869000      -0.60250000       0.00010148       0.00036894      -0.00002142       0.24180825
O        1.59075000       1.35223000      -1.54482000      -0.00031081       0.00009228      -0.00010014      -0.35185592
C       -0.24766000       2.24729000      -0.33316000       0.00036745       0.00003919      -0.00028597      -0.08479278
C       -0.41320000       2.66788000       1.12447000      -0.00013204       0.00002683       0.00001403      -0.10354965
H        0.04617000      -1.61658000       1.13338000      -0.00032479      -0.00012692       0.00043477       0.30079222
H       -3.47757000      -0.23524000       1.40657000      -0.00008633       0.00011492       0.00010270       0.05294981
H       -4.03380000      -0.25219000      -1.00549000      -0.00011389       0.00002238      -0.00008673       0.04282322
H       -2.37160000      -0.86665000      -2.68622000       0.00001469      -0.00000897      -0.00002312       0.03713653
H        0.00028000      -1.06131000      -2.10466000      -0.00008779      -0.00002133       0.00008943       0.04905406
H        0.80773000       0.42607000       1.37745000      -0.00013167      -0.00008470      -0.00031304       0.07243788
H        4.09518000      -1.00871000       1.19939000      -0.00015910       0.00009772       0.00002134       0.04141087
H        2.94941000       0.08795000       2.10524000      -0.00003740       0.00007060       0.00003822       0.03307455
H        3.48896000      -1.96805000      -0.87665000      -0.00002388       0.00000132      -0.00000974       0.04490702
H        1.76207000      -2.32016000      -1.01108000       0.00000162       0.00007899      -0.00007707       0.04520760
H        2.44372000      -0.90605000      -1.82682000       0.00009856      -0.00012769       0.00005225       0.06953578
H       -0.03216000       3.12156000      -0.95142000      -0.00007097      -0.00019522       0.00007050       0.06351025
H       -1.18465000       1.81248000      -0.69281000      -0.00011384       0.00007962       0.00010535       0.06343760
H       -0.82204000       1.86379000       1.73107000      -0.00005209      -0.00006459      -0.00002242       0.04340049
H       -1.10185000       3.50765000       1.18085000       0.00001137      -0.00012826       0.00004543       0.04737730
H        0.53924000       2.98251000       1.54539000       0.00007736      -0.00001423       0.00005617       0.04335787
