24
Properties=species:S:1:pos:R:3:forces:R:3:charge:R:1 charge=0 spin=1 energy=-1049.0751626395477 dipole="0.27064353247288075 -0.02996780586374724 -0.33455370903373766" pbc="F F F"
C       -2.29711000      -1.51158000      -0.24544000      -0.00011672       0.00016830      -0.00017025      -0.13172527
C       -1.20534000      -0.69911000       0.40403000      -0.00016048      -0.00009468      -0.00015838       0.29231337
O       -0.73809000      -0.90241000       1.50437000       0.00001703       0.00009768       0.00018849      -0.46294491
N       -1.19340000       0.78232000      -0.08502000       0.00006056      -0.00009470       0.00011473       0.00478267
C       -1.03285000       1.77411000       0.96077000       0.00006800       0.00002219       0.00003033      -0.05874750
O       -2.28441000       1.14964000      -0.90656000       0.00001541      -0.00027514      -0.00057999      -0.36106160
O        0.15950000      -0.91822000      -0.82459000       0.00024651      -0.00006971      -0.00002950      -0.47082050
C        1.36012000      -1.11755000      -0.18833000      -0.00041084       0.00039759       0.00011495       0.06643714
C        2.18680000       0.15348000      -0.20240000      -0.00010363      -0.00012249      -0.00004607       0.22770997
C        3.62842000       0.01088000       0.18282000      -0.00004631       0.00008835      -0.00010731      -0.14231351
O        1.67064000       1.20249000      -0.51451000       0.00011562       0.00001061       0.00005097      -0.36193786
H       -2.26723000      -2.51055000       0.17912000       0.00002423      -0.00010121       0.00009702       0.07247144
H       -2.15785000      -1.57577000      -1.32003000       0.00001695       0.00002169       0.00013690       0.06260877
H       -3.25970000      -1.05565000      -0.02082000       0.00005867      -0.00001214      -0.00002240       0.06738653
H       -0.52796000       1.29282000       1.79733000       0.00003366      -0.00003536      -0.00003822       0.09093940
H       -2.01158000       2.13213000       1.28209000      -0.00002003      -0.00004844       0.00004022       0.07082107
H       -0.43469000       2.60361000       0.58873000      -0.00001292       0.00002989      -0.00003047       0.07346900
H       -2.14912000       0.72309000      -1.76408000      -0.00006616       0.00030422       0.00047502       0.31413303
H       -0.15308000       0.40984000      -0.72961000       0.00012399      -0.00015995       0.00000966       0.30714797
H        1.90799000      -1.95841000      -0.62765000       0.00008547      -0.00013035      -0.00009892       0.04190109
H        1.14887000      -1.35229000       0.87943000      -0.00002098      -0.00005953      -0.00003526       0.07953212
H        4.06211000       0.98556000       0.39050000       0.00010764       0.00007530       0.00004782       0.07423460
H        3.72614000      -0.63966000       1.04785000      -0.00002717      -0.00003550      -0.00001205       0.06708550
H        4.16862000      -0.44431000      -0.64611000       0.00001151       0.00002338       0.00002272       0.07657749
