24
Properties=species:S:1:pos:R:3:forces:R:3:charge:R:1 charge=0 spin=1 energy=-1444.3932375930394 dipole="-0.03781216933875923 -0.2554738391240743 0.7915349361598448" pbc="F F F"
C        0.96562000      -2.13399000       0.76228000      -0.00042417      -0.00040755      -0.00060218      -0.11494945
C        0.09251000      -0.95101000       0.46612000      -0.00022568       0.00006352       0.00131622      -0.00807651
C       -1.26905000      -1.10519000       0.26707000      -0.00033511       0.00007436       0.00037177      -0.03371015
C       -2.10652000      -0.03551000      -0.03473000       0.00004574      -0.00010415      -0.00004639      -0.03309821
C       -3.55500000      -0.21045000      -0.24056000       0.00035941       0.00005506       0.00008338       0.35618802
O       -4.32572000       0.68385000      -0.48670000      -0.00025374       0.00020502       0.00025385      -0.41374027
O       -3.95936000      -1.48698000      -0.12538000      -0.00019636      -0.00021130      -0.00033427      -0.38148223
C       -1.56853000       1.24802000      -0.13506000       0.00005916       0.00003286      -0.00039087      -0.03930588
C       -0.22410000       1.41508000       0.06100000      -0.00029896      -0.00037517      -0.00002210       0.14066537
F        0.33768000       2.65086000       0.02405000       0.00013505       0.00016417      -0.00004153      -0.22340148
C        0.62656000       0.33551000       0.33094000       0.00004423       0.00040686      -0.00028380       0.18376174
O        3.55309000      -0.40829000       0.38593000      -0.00058686       0.00063916      -0.00187057      -0.46364932
N        3.02292000      -0.29342000      -0.72302000       0.00073668       0.00015726       0.00178451       0.71870418
O        3.44702000      -0.76782000      -1.72682000       0.00026556      -0.00011969      -0.00016427      -0.36297798
O        1.92849000       0.41076000      -0.78628000       0.00046915       0.00013387       0.00012964      -0.37501043
O        1.71482000       0.77425000       1.60524000       0.00029581       0.00006515      -0.00053055      -0.39774580
H        0.35433000      -2.97475000       1.07509000      -0.00003374      -0.00005286      -0.00018052       0.06273818
H        1.51504000      -2.43895000      -0.12990000       0.00010162      -0.00006183      -0.00000995       0.06231131
H        1.68526000      -1.91569000       1.54875000      -0.00030431      -0.00021752       0.00026441       0.06605963
H       -1.69257000      -2.09319000       0.35185000       0.00005854       0.00005777       0.00007718       0.08594374
H       -4.91624000      -1.53656000      -0.27503000       0.00018079       0.00001598       0.00005888       0.33191087
H       -2.20059000       2.09361000      -0.35183000       0.00010423      -0.00012897      -0.00001186       0.10190187
H        2.60071000       0.30618000       1.33438000       0.00039600      -0.00041872       0.00024218       0.38511166
H        1.81890000       1.73466000       1.50103000      -0.00059305       0.00002673      -0.00009317       0.35185116
