24
Properties=species:S:1:pos:R:3:forces:R:3:charge:R:1 charge=0 spin=1 energy=-1172.5120509359583 dipole="-0.4141206002970707 -0.7252336035658088 -0.4879717690072487" pbc="F F F"
C        2.86232000      -0.24003000       0.33598000      -0.00118562       0.00056422      -0.00072470      -0.10224357
C        4.00966000      -0.15803000      -0.57621000       0.00027222       0.00030383       0.00027019       0.20841248
O        5.10429000       0.22251000      -0.25767000       0.00021188       0.00007627      -0.00027506      -0.32284243
C        1.69577000      -0.94974000      -0.04984000      -0.00118927       0.00008191      -0.00015422       0.06479631
C        0.82571000      -1.52332000       0.89890000       0.00016016       0.00002568      -0.00026005       0.12921133
N        0.11988000      -1.98861000       1.67204000      -0.00019632      -0.00011027       0.00021758      -0.17091212
O        0.85834000       0.79563000      -0.35942000       0.00125340      -0.00080652      -0.00008062      -0.40949053
C       -0.26252000       1.43666000      -0.04224000      -0.00056744       0.00022935       0.00045632       0.36062958
O       -0.23686000       2.57091000       0.36878000       0.00018956      -0.00043995      -0.00033431      -0.40329989
C       -1.50450000       0.63102000      -0.18703000      -0.00010782       0.00011960       0.00040263      -0.02196174
C       -2.60136000       0.97330000       0.59822000       0.00036420       0.00009642      -0.00023805      -0.01709197
C       -3.76993000       0.24235000       0.50564000      -0.00018491      -0.00019822       0.00003688      -0.02237761
C       -3.85264000      -0.82367000      -0.37611000       0.00023863       0.00014089      -0.00007319      -0.01947725
C       -2.76849000      -1.15486000      -1.17244000      -0.00032234      -0.00018326      -0.00003251      -0.02600466
C       -1.59351000      -0.43298000      -1.07831000       0.00022074       0.00003358      -0.00009183      -0.02244309
H        3.09062000      -0.15484000       1.39363000       0.00002949       0.00007608       0.00009732       0.09837803
H        2.12070000       0.89985000       0.05933000       0.00068984       0.00008656       0.00047737       0.31805268
H        3.78507000      -0.47557000      -1.61344000      -0.00004274      -0.00011374       0.00009201       0.02347306
H        1.60767000      -1.32932000      -1.06166000       0.00010700       0.00004382       0.00007295       0.11035479
H       -2.51395000       1.80972000       1.27491000       0.00000221      -0.00002446       0.00001366       0.06058196
H       -4.61814000       0.50302000       1.12039000       0.00002069      -0.00000690      -0.00002250       0.04656381
H       -4.76599000      -1.39521000      -0.44747000      -0.00010883      -0.00004286       0.00001363       0.04453552
H       -2.83931000      -1.97743000      -1.86843000       0.00003508       0.00010149       0.00008994       0.04074008
H       -0.75499000      -0.67647000      -1.71437000       0.00011021      -0.00005351       0.00004656       0.03241521
