27
Properties=species:S:1:pos:R:3:forces:R:3:charge:R:1 charge=0 spin=1 energy=-1325.8526715507335 dipole="0.178005784390972 -0.4586514316073214 0.021575599257126255" pbc="F F F"
C        1.77490000       2.67374000       0.57162000      -0.00003734      -0.00031789      -0.00029993       0.02372212
O        2.57969000       1.85443000      -0.25558000       0.00011277       0.00001980       0.00019408      -0.21986484
C        2.82521000       0.62741000       0.20032000      -0.00016443       0.00029502       0.00021109       0.13095476
O        1.12193000      -0.54868000      -0.48611000      -0.00055081      -0.00009299      -0.00015730      -0.35067812
C        3.15254000      -0.40120000      -0.62314000       0.00042504      -0.00008151       0.00004036      -0.02084297
C        3.65920000      -1.71648000      -0.13427000      -0.00019618      -0.00008457      -0.00008151      -0.11487148
O       -0.33109000      -1.89304000       1.20119000       0.00013426      -0.00004765       0.00038349      -0.44052288
C       -0.97795000      -1.44091000       0.28192000      -0.00021192       0.00017595      -0.00058861       0.37738803
O       -0.47705000      -0.82508000      -0.74128000       0.00022805      -0.00013256       0.00022305      -0.27743798
C       -2.50142000      -1.56699000       0.20242000       0.00018676      -0.00018332       0.00003005      -0.09034996
C       -3.11840000      -0.44913000      -0.61804000      -0.00006160       0.00004457      -0.00023630      -0.06850781
N       -2.80282000       0.88255000      -0.05011000       0.00016862      -0.00022602       0.00038156       0.56279028
O       -2.08203000       0.93829000       0.91353000      -0.00013421       0.00007866      -0.00000087      -0.36975632
O       -3.30360000       1.82911000      -0.60469000      -0.00012512       0.00022270      -0.00021925      -0.37673293
H        2.18002000       2.73186000       1.58678000       0.00011335       0.00006513       0.00022481       0.04745673
H        1.77268000       3.66266000       0.11881000      -0.00000480       0.00016407      -0.00005901       0.07396642
H        0.75301000       2.28667000       0.61288000      -0.00003594      -0.00002112       0.00002526       0.07151372
H        2.75162000       0.47903000       1.27664000       0.00008425      -0.00002550      -0.00013244       0.04716233
H        3.23019000      -0.20143000      -1.68050000      -0.00007230       0.00001102      -0.00014507       0.08488738
H        3.19504000      -2.52998000      -0.68714000       0.00006342       0.00007412       0.00001699       0.06943536
H        3.46308000      -1.84851000       0.92726000      -0.00001370      -0.00002106       0.00000443       0.05176275
H        4.73540000      -1.77934000      -0.29782000       0.00002534       0.00003553       0.00003433       0.06079508
H        1.13287000      -1.09946000       0.32549000       0.00009344      -0.00010994       0.00004947       0.34577333
H       -2.87773000      -1.57052000       1.22642000      -0.00000938      -0.00000496      -0.00004666       0.09018165
H       -2.73363000      -2.53000000      -0.25524000       0.00001400       0.00015238       0.00010118       0.08321648
H       -4.20706000      -0.52932000      -0.66649000       0.00003284       0.00001100      -0.00002234       0.09532481
H       -2.72301000      -0.44833000      -1.63765000      -0.00006442      -0.00000089       0.00006916       0.11323409
