30
Properties=species:S:1:pos:R:3:forces:R:3:charge:R:1 charge=0 spin=1 energy=-1137.615639306455 dipole="0.43702044273904367 -0.46373738564437106 0.8913412255959782" pbc="F F F"
C        0.59792000       3.56013000      -0.17194000      -0.00033196      -0.00032629      -0.00028899       0.04164668
O        1.12049000       2.28775000       0.10863000      -0.00008821       0.00021339       0.00056590      -0.31945666
C        0.19144000       1.44310000       0.75547000       0.00047030       0.00014087      -0.00023958       0.07276565
C        0.81090000       0.04593000       0.85290000      -0.00078028       0.00014725      -0.00054294      -0.03338904
C        0.05120000      -0.85051000       1.83530000      -0.00027332       0.00018787      -0.00009514      -0.06471221
C       -1.43825000      -1.02377000       1.52840000      -0.00001204      -0.00000572      -0.00025666      -0.05972671
C       -1.73860000      -1.72313000       0.26154000       0.00051262      -0.00040997       0.00036743       0.03078446
O       -0.25504000      -1.04195000      -1.08902000      -0.00053815       0.00004096       0.00049179      -0.37630971
C        0.96207000      -0.56892000      -0.55466000       0.00037474      -0.00084610      -0.00035420       0.09838746
C        1.98204000      -1.71824000      -0.59981000      -0.00022087      -0.00000033       0.00009826       0.01259187
N        3.32155000      -1.18040000      -0.74707000       0.00027053       0.00001254      -0.00016520      -0.34200873
Cl      -2.69213000       0.22901000      -0.99618000       0.00003121      -0.00007615      -0.00011265      -0.56966115
H       -0.28818000       3.49221000      -0.81467000       0.00007024       0.00000675       0.00007635       0.03411538
H        0.32247000       4.08950000       0.74902000      -0.00001260       0.00009157       0.00007031       0.02712200
H        1.38102000       4.11200000      -0.68751000       0.00018853       0.00012757      -0.00012827       0.05728210
H       -0.02320000       1.82839000       1.76574000      -0.00004237      -0.00017777       0.00004894       0.01955892
H       -0.74940000       1.41770000       0.19078000      -0.00021124       0.00005944      -0.00009944       0.05049881
H        1.82616000       0.18744000       1.23793000       0.00025625       0.00003048       0.00021596       0.05316946
H        0.14445000      -0.41704000       2.83319000       0.00031505      -0.00026074       0.00023183       0.04568089
H        0.52425000      -1.83392000       1.85858000      -0.00002321      -0.00012172      -0.00007528       0.04810542
H       -1.95406000      -0.06606000       1.57200000       0.00005099       0.00018536      -0.00010536       0.09292103
H       -1.87610000      -1.65521000       2.31602000      -0.00006818       0.00006958       0.00007547       0.08400066
H       -1.12771000      -2.58268000       0.02740000       0.00004171       0.00014724       0.00000887       0.10125151
H       -2.77536000      -1.87095000       0.01829000      -0.00009294       0.00003561      -0.00019568       0.11353317
H        1.35601000       0.22084000      -1.20959000      -0.00011263       0.00007220       0.00006044       0.07241841
H        1.86151000      -2.37105000       0.28062000      -0.00010568       0.00005374       0.00003987       0.00971221
H        1.76493000      -2.31497000      -1.48992000       0.00006237      -0.00000837      -0.00000765       0.05718943
H        3.55996000      -0.58416000       0.03778000       0.00006586      -0.00002197       0.00006174       0.14069728
H        4.00248000      -1.92974000      -0.79010000      -0.00007585       0.00012690      -0.00001555       0.14470723
H       -0.86973000      -0.30669000      -1.33098000       0.00027911       0.00050583       0.00026944       0.35712416
