17
Properties=species:S:1:pos:R:3:forces:R:3:charge:R:1 charge=0 spin=1 energy=-1025.8815567945671 dipole="0.15314143477064895 1.1747774651310585 -0.21608049279768382" pbc="F F F"
N        1.87983000       1.64251000      -0.63300000      -0.00005563      -0.00015154      -0.00014548      -0.34494617
C        2.00721000       0.68617000       0.37357000      -0.00012239      -0.00012325      -0.00023687       0.13486339
F        3.14807000      -0.09417000       0.30042000      -0.00000879       0.00001763       0.00001946      -0.24105956
S        0.59862000      -0.52147000       0.07890000      -0.00007394       0.00014751      -0.00133183       1.00278227
O        0.65531000      -0.84542000      -1.31906000      -0.00001992       0.00031120       0.00104787      -0.54361606
O        0.64892000      -1.58130000       1.03607000       0.00002184      -0.00049990       0.00042628      -0.51365802
C       -0.87385000       0.51751000       0.37610000      -0.00002894      -0.00017976       0.00007044      -0.26789657
N       -2.79611000       0.75946000      -0.17515000       0.00041441       0.00065124       0.00025344       0.16980632
O       -3.49718000       0.88199000       0.73102000      -0.00000847      -0.00024686      -0.00008226      -0.15206260
O       -2.66709000      -0.96203000      -0.64086000      -0.00024086      -0.00053788       0.00034869      -0.51376800
H        1.77756000       1.18117000      -1.53324000      -0.00002822       0.00012943       0.00016034       0.19636932
H        2.64886000       2.30246000      -0.67238000       0.00016514       0.00012549      -0.00012772       0.19094774
H        1.96611000       1.09377000       1.38600000      -0.00002902       0.00005120       0.00029279       0.07061592
H       -0.61757000       1.44771000      -0.11659000      -0.00007446       0.00015501      -0.00011470       0.09599276
H       -0.95927000       0.62519000       1.45080000       0.00001711       0.00009801       0.00000996       0.08308126
H       -1.58411000      -0.48566000      -0.17695000      -0.00048118      -0.00014398      -0.00094764       0.32134064
H       -2.64801000      -0.95529000      -1.60214000       0.00055331       0.00019643       0.00035723       0.31120735
