24
Properties=species:S:1:pos:R:3:forces:R:3:charge:R:1 charge=0 spin=1 energy=-1440.28523064967 dipole="-0.0759098074365756 -0.03739393155905304 -0.09134215812022556" pbc="F F F"
C        4.12876000       1.01481000       0.65491000       0.00000877      -0.00008134       0.00025844      -0.11678164
C        2.72550000       0.66802000       0.26994000      -0.00007992       0.00017586      -0.00020735       0.02281509
C        1.80664000       1.67806000      -0.00802000      -0.00019558      -0.00041491       0.00008214      -0.04505348
C        0.51241000       1.36832000      -0.36121000       0.00026582       0.00007001      -0.00001049       0.07043457
Cl      -0.61106000       2.63936000      -0.69465000       0.00002419       0.00006227      -0.00011453      -0.15537438
C        0.05579000       0.03681000      -0.45811000      -0.00046607       0.00000644      -0.00002932       0.16036625
O       -1.19916000      -0.18172000      -0.78417000       0.00045736      -0.00011902       0.00020445      -0.44924486
N       -2.48239000       0.37724000       0.69179000       0.00171547      -0.00045802       0.00113379       0.73030561
O       -3.39642000       0.82384000       0.14435000      -0.00145573       0.00064488      -0.00082699      -0.24804183
O       -1.77021000       0.58302000       1.57547000      -0.00034991      -0.00009864      -0.00006863      -0.24289892
C        0.99502000      -0.97837000      -0.17785000       0.00022704      -0.00033160      -0.00004225      -0.05028710
C        0.69419000      -2.42161000      -0.26683000       0.00028760      -0.00049187       0.00019474       0.35859027
O        1.44904000      -3.29094000       0.09196000      -0.00034846       0.00048599      -0.00012218      -0.41486652
O       -0.50260000      -2.71742000      -0.80637000       0.00015945       0.00022242      -0.00011143      -0.37803253
C        2.30144000      -0.64459000       0.17390000       0.00001398       0.00007155       0.00003246      -0.03645297
O       -2.61824000      -1.44761000       0.56803000      -0.00019680       0.00003983      -0.00021918      -0.56467832
H        4.13189000       1.64966000       1.53937000      -0.00002413      -0.00006098      -0.00007815       0.06050412
H        4.61677000       1.56356000      -0.14936000       0.00004190       0.00009561      -0.00017047       0.05983047
H        4.70432000       0.11822000       0.86513000      -0.00000521       0.00006485       0.00002883       0.05648719
H        2.10440000       2.71371000       0.05394000       0.00007913       0.00023324       0.00003051       0.06770778
H       -0.61487000      -3.68057000      -0.82720000      -0.00000480      -0.00017073      -0.00001922       0.33090904
H        2.98201000      -1.45935000       0.37177000      -0.00001043       0.00001642      -0.00003429       0.07664644
H       -3.42076000      -1.69809000       0.09972000       0.00007124      -0.00007168       0.00018990       0.30415591
H       -1.75670000      -1.19903000      -0.26149000      -0.00021494       0.00010941      -0.00010077       0.40295982
