22
Properties=species:S:1:pos:R:3:forces:R:3:charge:R:1 charge=0 spin=1 energy=-1331.290560160442 dipole="0.5846755211439697 -0.1224781570653946 -0.1513467733378275" pbc="F F F"
O       -3.45033668       0.70397102      -0.71660381      -0.00014327       0.00153857      -0.00054978      -0.06472300
N       -3.26430526      -0.36007797      -0.34224688       0.00037182      -0.00151425       0.00058912       0.16496624
C       -0.97467989      -0.17907115       0.14727000      -0.00002400       0.00011183      -0.00006398      -0.10439607
Br      -0.97672079       1.53891256      -0.65867805      -0.00004469      -0.00009094       0.00008949      -0.06272671
Br      -0.42041713      -1.56207868      -1.05709201      -0.00000209      -0.00009614      -0.00007118      -0.12911479
S        0.33556854      -0.14650976       1.44353356      -0.00002888      -0.00128964      -0.00026435       1.04071631
O        0.28716521      -1.44021704       2.06040882       0.00000823       0.00050396      -0.00028309      -0.56203012
O        0.07393524       1.00626680       2.25233503      -0.00016597       0.00084712       0.00054165      -0.55608069
C        1.89979083       0.06128349       0.58404343       0.00002044       0.00016108      -0.00002698      -0.07769632
C        2.63329666      -1.05825232       0.24296300       0.00006141      -0.00014024      -0.00005838      -0.02036347
C        3.82760280      -0.88803573      -0.43789198      -0.00009393       0.00007744       0.00001891      -0.01866497
C        4.26342729       0.38747798      -0.76180515      -0.00000738      -0.00007321       0.00006263      -0.01840874
C        3.52104719       1.50049122      -0.39789671       0.00001276       0.00012718      -0.00002181      -0.01919738
C        2.32510053       1.34007939       0.28244705      -0.00010538      -0.00006904       0.00003422      -0.02270678
O       -3.22615837      -0.39978035       1.43335801       0.00010813      -0.00000837      -0.00005531      -0.47946618
H        2.27018032      -2.03575140       0.51895643      -0.00002520      -0.00005946      -0.00000818       0.06913077
H        4.41217206      -1.75093514      -0.71620628       0.00008730      -0.00011410      -0.00001250       0.05951844
H        5.19157050       0.51604872      -1.29783003       0.00012367       0.00000246      -0.00008850       0.05716248
H        3.86870773       2.49202738      -0.64286469       0.00000977       0.00004584      -0.00000068       0.05834174
H        1.73349736       2.18766278       0.59237996      -0.00004702       0.00005421       0.00004461       0.06446801
H       -2.06633935      -0.38237377       1.03807299      -0.00010469      -0.00002853       0.00008005       0.29836279
H       -3.47785477      -1.30025803       1.66437731      -0.00001103       0.00001424       0.00004407       0.32290844
