15
Properties=species:S:1:pos:R:3:forces:R:3:charge:R:1 charge=0 spin=1 energy=-922.65258310382 dipole="0.40254038848224377 -0.31144274920835396 0.24192581745465985" pbc="F F F"
C        0.88542000      -2.34337000       1.04834000       0.00023380       0.00006179      -0.00003633      -0.17653710
S        1.24082000      -0.65172000       0.39992000       0.00034303      -0.00025410      -0.00059787       1.07201794
O        1.83958000      -0.76110000      -0.89331000      -0.00027833       0.00016211       0.00077243      -0.48264407
O        2.04178000      -0.09301000       1.45949000      -0.00023295      -0.00007638      -0.00023236      -0.52863639
C        0.28145000       1.54506000       0.27295000      -0.00054830      -0.00021496       0.00019522       0.00874658
Cl       1.51343000       2.06257000      -0.79209000       0.00011107      -0.00003014      -0.00004690      -0.06921070
C       -1.03156000       1.49219000      -0.14239000       0.00006232       0.00044205      -0.00020558       0.00850097
Br      -1.32565000      -1.05338000      -0.69137000      -0.00006559      -0.00022653      -0.00008945      -0.34848317
C       -2.06845000       1.48229000       0.81041000      -0.00029434      -0.00008474       0.00041613       0.12691953
N       -2.90470000       1.50734000       1.59390000       0.00039346       0.00009298      -0.00038611      -0.17729499
H        1.81323000      -2.69246000       1.48660000       0.00008903      -0.00009624       0.00013940       0.11529329
H        0.56679000      -2.94242000       0.20499000      -0.00003072       0.00002742      -0.00002066       0.11936277
H        0.10966000      -2.24501000       1.79635000      -0.00004930       0.00005444      -0.00006354       0.10922571
H        0.51724000       1.64459000       1.32261000       0.00017466       0.00017680      -0.00008480       0.09774180
H       -1.30966000       1.69197000      -1.16840000       0.00009218      -0.00003449       0.00024041       0.12499784
