19
Properties=species:S:1:pos:R:3:forces:R:3:charge:R:1 charge=0 spin=1 energy=-894.9451595712179 dipole="-0.8056344367989904 -0.1889676279138974 0.08400995069629706" pbc="F F F"
N        3.08328000       0.47592000       0.42847000      -0.00052117      -0.00044563      -0.00014359      -0.21318356
C        2.20990000      -0.24198000       0.23190000       0.00101316       0.00062225       0.00026049       0.10952737
C        1.20985000      -1.21883000      -0.00822000       0.00013312       0.00016087       0.00112010       0.08257930
N        0.59148000      -1.44526000      -1.10283000      -0.00071169      -0.00058580      -0.00064680      -0.25735198
C       -1.52984000      -1.28538000      -0.91897000       0.00020299      -0.00018295      -0.00011211      -0.04629465
C       -1.71276000      -1.43113000       0.41647000      -0.00001254       0.00048168       0.00019534      -0.03806044
C       -1.11293000      -0.57690000       1.38457000      -0.00047629      -0.00016594      -0.00031606      -0.01347197
C       -0.36657000       0.52268000       1.12742000       0.00045270      -0.00014241      -0.00005948      -0.06885987
C       -0.43215000       1.37207000      -0.09352000      -0.00003237       0.00014055      -0.00031234       0.37259864
O        0.39664000       1.48058000      -0.95886000      -0.00019602       0.00018723       0.00015402      -0.41558906
O       -1.56027000       2.09592000      -0.09060000       0.00000190       0.00001811      -0.00010891      -0.37466224
H        1.05600000      -1.92231000       0.80784000       0.00018352      -0.00020128      -0.00020675       0.05874509
H        0.79903000      -0.76826000      -1.83713000      -0.00001619       0.00011287      -0.00020904       0.17290658
H       -1.85919000      -2.05472000      -1.59661000       0.00017002       0.00021501       0.00015490       0.06720086
H       -1.35716000      -0.32427000      -1.36795000      -0.00010885       0.00010069       0.00014044       0.06063132
H       -2.12392000      -2.35753000       0.79177000       0.00004115      -0.00016020      -0.00001503       0.04800662
H       -1.11534000      -0.94295000       2.40413000      -0.00001363      -0.00010786       0.00014601       0.05017227
H        0.17759000       1.00370000       1.92992000      -0.00010809       0.00002123      -0.00012718       0.07338020
H       -1.58441000       2.69663000      -0.85372000      -0.00000173      -0.00006841       0.00008598       0.33172549
