18
Properties=species:S:1:pos:R:3:forces:R:3:charge:R:1 charge=0 spin=1 energy=-748.2068499524156 dipole="-0.32684026777855973 -0.15373263500692222 0.13824132095852712" pbc="F F F"
C        2.03576000      -0.90973000      -0.16339000      -0.00101026      -0.00020089      -0.00037767       0.11864042
O        2.91285000      -0.20512000       0.12756000       0.00079419       0.00028009       0.00036049      -0.16359590
N        0.43886000      -0.35967000       0.83460000      -0.00010201      -0.00011597       0.00015976      -0.42537898
C       -0.43929000       0.44646000       0.03137000      -0.00000136      -0.00011514       0.00013165       0.28615015
C        0.28266000       1.38335000      -0.94835000      -0.00008673       0.00036960       0.00023542      -0.12237282
N       -1.22676000       1.25385000       0.93293000       0.00008902       0.00016890      -0.00035449      -0.36894816
O       -1.20480000      -0.42666000      -0.80051000      -0.00035004      -0.00005775       0.00016172      -0.35879595
C       -2.03972000      -1.34234000      -0.12559000       0.00004827      -0.00018237      -0.00012345       0.04674182
H        1.02224000      -1.34692000       0.06200000       0.00027814      -0.00016676      -0.00019771       0.26619822
H        0.83761000       0.17575000       1.59126000      -0.00013795       0.00018175      -0.00025865       0.15015089
H        0.82847000       0.79094000      -1.67793000       0.00010622      -0.00020277       0.00015671       0.04628052
H       -0.44635000       1.99670000      -1.46927000      -0.00002278      -0.00021542       0.00016422       0.05113106
H        0.96708000       2.02300000      -0.39925000       0.00020757       0.00036454      -0.00005120       0.05240850
H       -1.69325000       0.67451000       1.62164000       0.00019193       0.00007179      -0.00017262       0.15336373
H       -1.92204000       1.78273000       0.42026000       0.00008205      -0.00023225       0.00008557       0.15403052
H       -2.29974000      -2.10849000      -0.85361000       0.00001468       0.00001407       0.00012149       0.05157780
H       -1.52001000      -1.79836000       0.72239000      -0.00006234       0.00007488      -0.00000070       0.03864511
H       -2.95964000      -0.86145000       0.22912000      -0.00003860      -0.00003631      -0.00004052       0.02377307
