23
Properties=species:S:1:pos:R:3:forces:R:3:charge:R:1 charge=0 spin=1 energy=-1248.268940822811 dipole="-0.3580216473379363 0.09482387712981395 0.8640458143058293" pbc="F F F"
C       -1.37045000       1.39713000       0.97169000       0.00033044       0.00003493      -0.00000356      -0.06153740
N       -1.99792000       0.34008000       0.21480000      -0.00009767       0.00013152      -0.00017761      -0.07102016
C       -3.44511000       0.32580000       0.23165000       0.00012967      -0.00005902      -0.00000505      -0.05550738
C       -1.35882000      -0.57007000      -0.54319000       0.00015805      -0.00023218       0.00013340       0.25315350
O       -1.92264000      -1.51751000      -1.06034000      -0.00019959      -0.00007509      -0.00022452      -0.43329141
C        0.16278000      -0.44741000      -0.74518000       0.00008714      -0.00003572      -0.00013697      -0.02238994
N        1.82513000      -1.51612000       0.10119000       0.00006669       0.00036371      -0.00009567       0.16956396
O        1.92134000      -2.57491000      -0.34895000      -0.00012202       0.00006167      -0.00011128      -0.16104865
O        0.61592000       0.86377000      -1.05133000      -0.00028288       0.00020311       0.00009102      -0.24180936
C        1.45271000       1.58133000      -0.31960000       0.00032985       0.00017941      -0.00020012       0.48171542
O        1.83597000       2.65425000      -0.67894000      -0.00019466      -0.00037996       0.00016190      -0.42213193
O        1.80123000       1.01901000       0.84691000      -0.00013433      -0.00041346      -0.00009941      -0.39113237
O        0.76982000      -1.53217000       1.55548000      -0.00015752       0.00022068      -0.00020084      -0.51304010
H       -2.06204000       1.71287000       1.75165000      -0.00008315       0.00004524       0.00005270       0.06758849
H       -0.46050000       1.04260000       1.45409000       0.00001820       0.00007317       0.00000236       0.07354427
H       -1.14007000       2.26358000       0.34534000       0.00002421      -0.00007998      -0.00000253       0.06078260
H       -3.83494000       1.27430000      -0.14191000      -0.00002497       0.00004962       0.00001683       0.05801016
H       -3.80748000       0.16343000       1.24857000       0.00002234      -0.00005945       0.00012344       0.05639194
H       -3.78956000      -0.48546000      -0.40587000       0.00001066      -0.00002254      -0.00003447       0.09218039
H        0.36196000      -1.05184000      -1.63334000       0.00025777      -0.00014634       0.00011179       0.09715916
H        2.45697000       1.56182000       1.30426000      -0.00005229       0.00003679       0.00003662       0.34372624
H        0.33000000      -0.87816000       0.58491000      -0.00005276       0.00023639       0.00049401       0.31836088
H        0.33538000      -2.39106000       1.60546000      -0.00003317      -0.00013249       0.00006799       0.30073169
