16
Properties=species:S:1:pos:R:3:forces:R:3:charge:R:1 charge=0 spin=1 energy=-1055.0338031652057 dipole="0.25974364940167594 0.6662206321778519 0.8550402614182129" pbc="F F F"
N       -3.88307000      -0.84432000      -0.16725000      -0.00019800      -0.00018950      -0.00006351      -0.19191437
C       -3.06359000      -0.10669000       0.13141000       0.00013568       0.00015949       0.00001861       0.12109765
C       -2.02595000       0.79908000       0.50483000       0.00007996       0.00022648       0.00002154      -0.13762206
S       -0.42908000       0.02591000      -0.02185000      -0.00000963      -0.00006840      -0.00068931       1.01601833
O       -0.42638000      -0.07678000      -1.44687000      -0.00001039       0.00001066       0.00062877      -0.52679871
O       -0.23340000      -1.17571000       0.75662000      -0.00000724       0.00007840      -0.00003685      -0.58892081
C        0.92875000       1.06830000       0.55549000      -0.00011504       0.00021733       0.00010271      -0.09420629
F        1.15916000       2.13024000      -0.26894000       0.00003955      -0.00009714       0.00001008      -0.21682248
N        2.45579000      -0.27195000      -0.48016000       0.00002452       0.00013945      -0.00014111       0.22494410
O        1.98086000      -1.04303000      -1.16358000       0.00000758      -0.00015186      -0.00005132      -0.05636220
O        2.55759000      -0.84284000       1.18263000      -0.00016101      -0.00003683       0.00013056      -0.47085714
H       -2.10875000       1.74269000      -0.02928000      -0.00000218      -0.00018687       0.00006789       0.10101592
H       -1.98897000       0.93384000       1.58302000      -0.00000963      -0.00001610      -0.00001099       0.09263563
H        0.64231000       1.46880000       1.53349000      -0.00000444      -0.00001233       0.00001209       0.07112036
H        1.91154000       0.17523000       1.13176000       0.00010179      -0.00002839       0.00000660       0.32148511
H        1.90292000      -1.55081000       1.30221000       0.00012849      -0.00004440      -0.00000576       0.33518695
