23
Properties=species:S:1:pos:R:3:forces:R:3:charge:R:1 charge=0 spin=1 energy=-1177.7295442110876 dipole="-0.5101982231734413 0.8569066548580873 -0.8853350641038757" pbc="F F F"
C        2.14275000       0.61078000      -0.31528000       0.00042685       0.00029527       0.00024711      -0.00784313
C        2.56056000      -0.69225000      -0.76411000      -0.00033290       0.00031970       0.00000317       0.13246301
N        3.00393000      -1.65539000      -1.19264000       0.00009551      -0.00040483      -0.00020838      -0.19208754
C        1.48141000       0.69126000       0.97637000       0.00090564      -0.00027780       0.00064733      -0.09333524
C        0.13074000       1.63789000      -0.75644000       0.00110932       0.00047725       0.00140341       0.23460314
O        0.29166000       2.79945000      -0.65759000      -0.00017162      -0.00085527      -0.00085563      -0.24315903
C       -0.86098000       0.63868000      -0.61561000      -0.00037667       0.00088339      -0.00107117      -0.00110239
C       -0.74450000      -0.67438000      -1.09379000      -0.00019821      -0.00047164       0.00025234       0.00379955
C       -1.79837000      -1.55657000      -0.92286000       0.00028364      -0.00031428      -0.00009491      -0.00849122
C       -2.94764000      -1.15480000      -0.26814000      -0.00012963      -0.00036653       0.00008897      -0.00561512
C       -3.07192000       0.15025000       0.19992000       0.00011107       0.00055004      -0.00003001      -0.01580966
C       -2.04445000       1.04742000       0.03638000      -0.00048161      -0.00010019       0.00019453      -0.01008027
N        0.79278000      -0.37545000       1.46345000      -0.00037484      -0.00002259      -0.00006387       0.50141575
O        0.24437000      -0.28055000       2.55920000      -0.00000598       0.00004899       0.00014219      -0.45238436
O        0.70008000      -1.38346000       0.73969000      -0.00006069      -0.00028493      -0.00025917      -0.46181461
H        1.32464000       0.96109000      -1.18157000      -0.00099382       0.00008049      -0.00000964       0.12435494
H        2.94461000       1.34289000      -0.42964000      -0.00016709       0.00027778      -0.00014988       0.09732768
H        1.58305000       1.54404000       1.62375000      -0.00023319       0.00006199      -0.00017959       0.07040915
H        0.13425000      -0.99573000      -1.62899000       0.00030442      -0.00005298      -0.00014898       0.07195717
H       -1.69885000      -2.56817000      -1.28133000       0.00003720       0.00015342       0.00022420       0.06828335
H       -3.75380000      -1.85559000      -0.11503000       0.00007340       0.00018114      -0.00023182       0.06196020
H       -3.96845000       0.45818000       0.71527000       0.00013853      -0.00003891       0.00013447       0.06256280
H       -2.11685000       2.05598000       0.41274000       0.00004067      -0.00013953      -0.00003466       0.06258582
