17
Properties=species:S:1:pos:R:3:forces:R:3:charge:R:1 charge=0 spin=1 energy=-1004.6903371132047 dipole="0.46347608325287665 -0.18813962292450853 0.021936718922024864" pbc="F F F"
N        1.81242000       2.57745000      -0.71734000       0.00047853       0.00042291      -0.00040174      -0.19124545
C        1.18551000       1.90040000      -0.04505000      -0.00050164      -0.00067089       0.00052445       0.11507201
C        0.40270000       1.02065000       0.79108000      -0.00076258       0.00064091       0.00019277      -0.00882493
N       -0.13864000      -0.10895000       0.02787000       0.00040174      -0.00130944       0.00024654      -0.11229921
C       -1.47503000      -0.71233000       0.77491000      -0.00038391      -0.00009036       0.00054693       0.25534853
O       -1.68274000      -0.33209000       1.87391000       0.00088487      -0.00015605       0.00034223      -0.29331514
C        0.68965000      -1.11483000      -0.52872000      -0.00024600       0.00061182       0.00103590       0.27471780
O        0.19368000      -2.04870000      -1.09532000      -0.00049495      -0.00020549      -0.00048246      -0.32670921
C        2.20086000      -0.93995000      -0.44378000      -0.00006731      -0.00008509       0.00010739       0.07619495
F        2.62584000      -0.66644000       0.82781000      -0.00013269       0.00010402       0.00000166      -0.23129499
Cl      -2.62425000       0.46593000      -0.74608000      -0.00071169       0.00026196      -0.00116183      -0.43070409
H       -0.45603000       1.57569000       1.18919000       0.00075655      -0.00059842      -0.00037651       0.13312244
H        1.00600000       0.68078000       1.63914000       0.00010676       0.00006697      -0.00002235       0.12554989
H       -1.67763000      -1.66487000       0.29588000       0.00054570       0.00002009      -0.00007593       0.09929780
H        2.67645000      -1.87388000      -0.75817000      -0.00014676       0.00018839      -0.00002627       0.10386951
H        2.52601000      -0.11204000      -1.08620000       0.00001195       0.00016520      -0.00010410       0.09711406
H       -0.92111000       0.31472000      -0.73982000       0.00026141       0.00063347      -0.00034667       0.31410603
