17
Properties=species:S:1:pos:R:3:forces:R:3:charge:R:1 charge=0 spin=1 energy=-903.2370713343632 dipole="0.24609133498386387 -0.16275984425237883 -0.21469222934469415" pbc="F F F"
C       -1.01722000      -0.52768000       1.71552000      -0.00000043       0.00003641      -0.00004817      -0.12187641
C       -1.06327000      -0.63258000       0.21520000       0.00020419      -0.00035846      -0.00037250       0.02160247
Cl      -2.74092000      -0.79478000      -0.38895000      -0.00007435      -0.00003636       0.00007121      -0.18604922
S       -0.49147000       0.96195000      -0.59864000      -0.00003817      -0.00027839      -0.00026812       0.46728667
O       -1.05284000       2.02989000       0.20791000      -0.00007185       0.00043902       0.00034454      -0.44536551
C        1.33551000       0.86593000      -0.01381000      -0.00013126      -0.00009934      -0.00018050      -0.19916462
N        2.70037000      -0.34047000       0.49163000       0.00023801       0.00021462       0.00023966       0.14862247
O        3.73980000       0.00149000       0.08847000      -0.00000934      -0.00015146      -0.00008994      -0.21604198
O        1.88931000      -1.49440000      -0.69747000      -0.00014443       0.00001273       0.00012040      -0.56389677
H       -1.64142000      -1.29070000       2.17450000      -0.00002357      -0.00002826       0.00002542       0.07295598
H       -1.38529000       0.45175000       2.02177000       0.00008567      -0.00002779       0.00006901       0.08174636
H        0.00526000      -0.66174000       2.06131000      -0.00014851       0.00014951      -0.00002386       0.07079916
H       -0.48671000      -1.46480000      -0.18414000      -0.00006295       0.00017618       0.00010883       0.09151789
H        1.23061000       1.20956000       1.01124000       0.00000552       0.00000870       0.00011491       0.10901958
H        1.86599000       1.61235000      -0.60409000       0.00003763      -0.00025812       0.00003897       0.07450703
H        1.36625000      -0.31673000      -0.55805000       0.00000399       0.00015152      -0.00001734       0.30820205
H        2.46162000      -1.56611000      -1.46624000       0.00012984       0.00004949      -0.00013252       0.28613487
