24
Properties=species:S:1:pos:R:3:forces:R:3:charge:R:1 charge=0 spin=1 energy=-1067.6439257039974 dipole="-0.018742518577117298 0.6797104810749959 -0.3120492076137785" pbc="F F F"
C        2.27543000      -0.63482000       1.11922000       0.00021409      -0.00020732      -0.00009189      -0.04434813
N        1.84071000       0.45560000       0.32803000       0.00011595      -0.00029290      -0.00052633      -0.10049205
C        0.67376000       0.43704000      -0.30934000      -0.00026099       0.00059379       0.00003690       0.03374719
N       -0.04815000       1.65891000      -0.48542000       0.00011888      -0.00013419      -0.00021616      -0.26648159
C       -0.18861000       2.41372000       0.76112000      -0.00010004      -0.00031514       0.00034729      -0.04394600
S       -0.59929000      -0.88377000       0.11173000       0.00083543      -0.00168261      -0.00093040       0.91023057
O       -0.96569000      -0.64931000       1.49268000       0.00005571       0.00016636       0.00030256      -0.55251123
O       -0.11677000      -2.20207000      -0.22008000      -0.00061907       0.00141503       0.00046888      -0.54204132
C       -2.12022000      -0.49461000      -0.93301000       0.00008329      -0.00059071      -0.00023707      -0.05584703
N       -2.88939000       0.56035000      -0.40832000      -0.00024651       0.00067177       0.00016099      -0.30471852
O        2.58024000       0.06373000      -1.46989000      -0.00072538       0.00018811       0.00029116      -0.59892732
H        2.05432000      -1.61185000       0.68436000       0.00006040       0.00013107       0.00005118       0.07367005
H        1.73221000      -0.56375000       2.06832000      -0.00015715      -0.00002742       0.00017004       0.09111095
H        3.34151000      -0.52216000       1.30876000      -0.00009204       0.00002461       0.00003175       0.07705933
H        0.40503000       2.24508000      -1.18112000      -0.00019660      -0.00001382      -0.00005611       0.17024537
H        0.77021000       2.76434000       1.15233000       0.00000171      -0.00001962       0.00002420       0.04272721
H       -0.83516000       3.27065000       0.57616000       0.00002958       0.00011385      -0.00001182       0.04835528
H       -0.65003000       1.76221000       1.50181000       0.00004296       0.00012092      -0.00014654       0.06147756
H       -2.66904000      -1.43571000      -0.93249000       0.00009266       0.00011829       0.00002695       0.08488426
H       -1.73945000      -0.27075000      -1.92599000       0.00002304      -0.00006671      -0.00002213       0.06805883
H       -3.13498000       0.37487000       0.55824000      -0.00007364      -0.00003268       0.00012398       0.17531612
H       -2.37938000       1.43518000      -0.45843000      -0.00003416      -0.00001217      -0.00003009       0.17842927
H        1.18223000       0.06673000      -1.41902000       0.00073089      -0.00013211       0.00031485       0.25075604
H        3.36459000      -0.12531000      -2.01014000       0.00010099      -0.00001638      -0.00008216       0.24324511
