24
Properties=species:S:1:pos:R:3:forces:R:3:charge:R:1 charge=0 spin=1 energy=-1114.8404882261075 dipole="-0.05602183643769224 -0.21686705690082342 1.6926406646066097" pbc="F F F"
C       -0.87976000       0.98522000      -0.05147000      -0.00076877      -0.00032166       0.00033441       0.34242189
C       -0.85783000       1.86573000       1.17429000      -0.00028726       0.00020831       0.00010872      -0.14242480
O       -1.95201000       0.83767000      -0.74132000       0.00017135       0.00005946       0.00022457      -0.41262597
C       -1.82943000      -0.86476000      -0.28210000      -0.00002138       0.00078885       0.00028385       0.30647635
C       -3.09555000      -0.97225000       0.50811000      -0.00022743      -0.00007331       0.00000321      -0.12620392
O       -1.37878000      -1.55456000      -1.14170000       0.00010010      -0.00037334      -0.00032922      -0.36517312
O        0.28488000       1.04210000      -0.78064000       0.00046199      -0.00028509      -0.00040042      -0.23887785
C        1.51446000       0.54710000      -0.52413000      -0.00017107      -0.00010705      -0.00003021       0.35775011
O        2.48022000       1.14590000      -0.88897000       0.00035428       0.00001475      -0.00016774      -0.32647999
C        1.58863000      -0.80307000       0.19959000      -0.00008359       0.00007198      -0.00012135       0.09562109
N        2.88331000      -1.36800000      -0.06304000      -0.00025252       0.00039987       0.00004116      -0.34876578
N        1.24658000      -0.54684000       1.60824000       0.00027837      -0.00036104       0.00016245      -0.37809613
H       -0.93788000      -0.38853000       0.55316000       0.00018405       0.00014310      -0.00015656       0.02782763
H       -1.79119000       1.77005000       1.72086000      -0.00005692       0.00026644       0.00002770       0.07668635
H       -0.75581000       2.89598000       0.83376000      -0.00012579      -0.00004454       0.00007394       0.09751439
H       -0.01661000       1.61084000       1.81215000      -0.00008388      -0.00028815      -0.00017606       0.07803793
H       -3.05851000      -1.90482000       1.06936000       0.00000327       0.00013702      -0.00000965       0.08044743
H       -3.23705000      -0.13758000       1.18465000       0.00008843      -0.00007121      -0.00007602       0.07823659
H       -3.92113000      -1.00388000      -0.19929000       0.00006999      -0.00009038       0.00004429       0.10241638
H        0.83132000      -1.47806000      -0.21809000       0.00003472      -0.00000412       0.00004536       0.07210087
H        3.08131000      -2.17030000       0.52034000       0.00000599      -0.00017840      -0.00012581       0.15381452
H        3.61888000      -0.67645000       0.02140000       0.00027517      -0.00007794       0.00015421       0.16525095
H        1.98847000      -0.00618000       2.04646000      -0.00002823      -0.00005021       0.00008231       0.14959835
H        1.17147000      -1.42389000       2.11410000       0.00007910       0.00023666       0.00000689       0.15444674
