19
Properties=species:S:1:pos:R:3:forces:R:3:charge:R:1 charge=0 spin=1 energy=-897.9464295476988 dipole="-0.11358643042103657 0.08707815666460728 -0.16381671821996618" pbc="F F F"
N        3.02778000      -0.55131000      -0.56523000      -0.00010589      -0.00024167      -0.00015042      -0.27555761
N        2.62010000       0.46887000       0.34107000      -0.00013900       0.00019769       0.00017295      -0.18095646
C        1.27148000       0.88733000       0.09590000       0.00043598      -0.00042479      -0.00016844       0.06856072
N        0.28347000      -0.01495000       0.70036000       0.00006995       0.00066360       0.00005162      -0.07471186
O        0.29693000      -1.28142000       0.08416000       0.00010880       0.00002854       0.00031258      -0.38266234
C       -1.03152000       0.53196000       0.80071000      -0.00012134      -0.00075178      -0.00057557       0.04062439
N       -1.86161000       0.78576000      -0.25131000       0.00014602       0.00070470       0.00024940      -0.01369241
O       -1.44089000       0.31352000      -1.45822000       0.00052934      -0.00038934       0.00054447      -0.30058188
O       -2.94381000      -0.69210000       0.46713000      -0.00003540      -0.00053727      -0.00005828      -0.61201816
H        2.63196000      -1.46042000      -0.32017000       0.00010700       0.00021100       0.00001745       0.14637424
H        4.04018000      -0.61106000      -0.53224000       0.00004317       0.00004704       0.00004540       0.14103871
H        2.71082000       0.18892000       1.32064000      -0.00003769      -0.00006577      -0.00003878       0.13585900
H        1.14762000       0.96636000      -0.99337000      -0.00002559       0.00005624       0.00008121       0.04969053
H        1.12424000       1.86589000       0.56092000       0.00013431      -0.00000095       0.00008546       0.04292394
H       -0.06222000      -1.20453000      -0.81865000      -0.00010117       0.00003381      -0.00006454       0.30408261
H       -1.10069000       1.31681000       1.54967000      -0.00005258      -0.00006002       0.00000838       0.07600954
H       -2.16585000       0.48793000      -2.07827000      -0.00077242       0.00018018      -0.00059313       0.32501840
H       -1.79398000      -0.39079000       1.22877000      -0.00019108       0.00013474      -0.00000531       0.27940774
H       -3.75779000      -1.21347000       0.38417000       0.00000759       0.00021407       0.00008555       0.23059090
