32
Properties=species:S:1:pos:R:3:forces:R:3:charge:R:1 charge=0 spin=1 energy=-1275.58919996807 dipole="0.30177492681212864 -0.4767982137292528 0.2665937656469597" pbc="F F F"
C       -1.24889000      -2.02719000      -1.28978000      -0.00014760       0.00029047       0.00012803      -0.04037153
N       -0.74596000      -1.82503000       0.06165000       0.00007025      -0.00007120      -0.00019851      -0.09740289
C       -1.63916000      -2.37489000       1.06183000      -0.00004659       0.00016753       0.00005264      -0.04642358
N       -0.37345000      -0.49320000       0.37461000      -0.00032941      -0.00042295       0.00000696      -0.08785757
C        1.01882000      -0.23974000       0.18230000       0.00015855       0.00025924       0.00019293       0.05374598
C        1.79857000      -1.00659000      -0.67573000      -0.00034964      -0.00002763      -0.00003546      -0.04459932
C        3.14719000      -0.73079000      -0.82150000       0.00042256       0.00008830      -0.00001009      -0.02858776
C        3.73464000       0.30367000      -0.11616000      -0.00021628       0.00004532       0.00006948      -0.03347710
C        2.96755000       1.04953000       0.76365000       0.00031266       0.00024936       0.00016427      -0.02740972
C        1.62322000       0.77431000       0.92319000      -0.00006780      -0.00046816      -0.00028768      -0.05283096
C       -1.43138000       0.65008000      -0.02693000       0.00127417       0.00041705       0.00078291       0.29612502
O       -2.54012000       0.24992000      -0.30697000      -0.00030453      -0.00021768      -0.00005999      -0.47941298
C       -0.78546000       1.84503000      -0.72683000      -0.00063072      -0.00007210      -0.00105091      -0.00087683
N       -1.78075000       2.76484000      -1.23269000       0.00042775       0.00030467      -0.00037990      -0.33141333
O       -1.38830000       1.07045000       1.70318000      -0.00057696      -0.00042453       0.00033074      -0.58190033
H       -1.06112000      -3.06756000      -1.55978000       0.00004563      -0.00020809      -0.00005015       0.04060982
H       -0.71661000      -1.37922000      -1.98229000       0.00005449       0.00001353      -0.00004882       0.04416546
H       -2.31889000      -1.82066000      -1.37930000      -0.00001887      -0.00002830      -0.00000100       0.05222673
H       -1.18220000      -2.26755000       2.04583000       0.00001055       0.00000340       0.00006373       0.04080955
H       -2.62762000      -1.90004000       1.05733000       0.00010719      -0.00010861      -0.00003675       0.04513181
H       -1.76182000      -3.43618000       0.85248000      -0.00003101      -0.00005129      -0.00001142       0.05315412
H        1.36198000      -1.83201000      -1.21160000       0.00001858       0.00009203       0.00003737       0.05279282
H        3.74061000      -1.33293000      -1.49342000      -0.00003979       0.00000603       0.00000312       0.03740529
H        4.78531000       0.51838000      -0.23824000      -0.00003357      -0.00003277      -0.00000170       0.03661130
H        3.42096000       1.84205000       1.33986000      -0.00008489      -0.00020108      -0.00016769       0.03923407
H        1.03827000       1.34225000       1.63038000      -0.00011486       0.00018762       0.00008356       0.05518856
H       -0.21030000       1.45496000      -1.57428000      -0.00010113       0.00004563       0.00009922       0.04319960
H       -0.11331000       2.38019000      -0.06015000      -0.00005399       0.00001374       0.00003595       0.05979546
H       -2.25931000       3.20621000      -0.45347000      -0.00002964       0.00016477       0.00010837       0.14960979
H       -2.48337000       2.24040000      -1.74795000       0.00000335       0.00000363       0.00001563       0.15635746
H       -0.72550000      -0.01237000       1.48016000       0.00012332      -0.00003876       0.00015436       0.31446980
H       -2.26926000       0.91433000       2.05545000       0.00014822       0.00002089       0.00001081       0.28193124
