18
Properties=species:S:1:pos:R:3:forces:R:3:charge:R:1 charge=0 spin=1 energy=-1033.9664296564688 dipole="-0.38425801125136616 0.22760935365083587 0.5760886697687493" pbc="F F F"
C       -2.46716000       1.09181000      -0.19368000      -0.00013750       0.00005431      -0.00035262      -0.20011692
S       -1.32832000      -0.31826000      -0.24623000       0.00035523       0.00014928      -0.00016962       1.02645273
O       -0.98017000      -0.61342000      -1.60705000      -0.00001151      -0.00000063       0.00010971      -0.55390945
O       -1.85509000      -1.38198000       0.55972000       0.00013401      -0.00019271       0.00021297      -0.54504554
C        0.21507000       0.26008000       0.61084000      -0.00030705      -0.00010043       0.00010409      -0.09022093
N       -0.05936000       0.26045000       1.99908000       0.00014145      -0.00005710      -0.00007430      -0.29192737
C        0.58346000       1.47531000       0.00622000       0.00004307      -0.00011132       0.00009814       0.08692236
N        0.97284000       2.39298000      -0.56582000       0.00001142       0.00025716      -0.00012200      -0.22632042
N        2.40007000      -0.36752000       0.34514000      -0.00010860      -0.00016165       0.00046958       0.14461330
O        2.95931000       0.17227000      -0.50965000       0.00017763       0.00013954      -0.00040661      -0.14041830
O        1.56262000      -1.81372000      -0.23349000      -0.00025768       0.00035903      -0.00025846      -0.49318772
H       -2.03335000       1.89040000      -0.78119000       0.00004921       0.00001185      -0.00003103       0.09633104
H       -2.58741000       1.37214000       0.84449000      -0.00003591      -0.00000250       0.00020054       0.09531068
H       -3.40654000       0.76049000      -0.61828000       0.00011472       0.00003972       0.00007420       0.10480026
H        0.69615000       0.60183000       2.57748000       0.00000517       0.00005298       0.00001675       0.18529422
H       -0.39643000      -0.64502000       2.30139000      -0.00006483      -0.00005848       0.00005469       0.18647888
H        0.76787000      -0.91928000       0.14871000      -0.00041770      -0.00004316       0.00018412       0.29874724
H        1.53641000      -1.83815000      -1.19822000       0.00030888      -0.00033588      -0.00011014       0.31619594
