24
Properties=species:S:1:pos:R:3:forces:R:3:charge:R:1 charge=0 spin=1 energy=-1032.821197848215 dipole="0.3612993135343826 0.3665095059713694 0.17404897204688807" pbc="F F F"
C        3.84000000      -1.64906000      -0.10717000       0.00015538       0.00010139       0.00003510      -0.21801575
C        3.24650000      -0.37647000      -0.03845000      -0.00003209      -0.00004737      -0.00013866       0.17995701
O        4.18780000       0.51505000      -0.11579000       0.00005157       0.00016583       0.00007615      -0.44328441
C        1.84648000       0.00283000       0.02007000      -0.00011395      -0.00009615       0.00008989      -0.00038037
C        0.84483000      -0.94615000       0.23416000      -0.00033367       0.00042831      -0.00001569      -0.02773534
C       -0.47671000      -0.55656000       0.29894000       0.00031469      -0.00011453      -0.00006603      -0.03350948
C       -0.82922000       0.78277000       0.16180000       0.00036469       0.00028282       0.00008722       0.00835267
C       -2.27828000       1.20209000       0.24997000       0.00009634       0.00002569      -0.00019108      -0.00374990
N       -3.16605000       0.27509000      -0.40387000      -0.00051380      -0.00032139       0.00027224      -0.16591205
C       -3.98782000      -0.58929000       0.21392000       0.00051248       0.00054306       0.00011815       0.25310486
O       -4.64687000      -1.42911000      -0.34378000      -0.00018034      -0.00024879      -0.00018322      -0.40824219
C        0.16757000       1.72933000      -0.04459000      -0.00028090      -0.00020936       0.00001114      -0.03682931
C        1.49059000       1.34600000      -0.11985000       0.00001054       0.00002045       0.00000281      -0.01768473
H        4.86496000      -0.62953000      -0.36635000      -0.00000935      -0.00015317      -0.00003518       0.30095307
H        4.50351000      -1.88957000       0.71618000       0.00005537       0.00001133       0.00005775       0.06981090
H        3.30118000      -2.52074000      -0.45561000      -0.00012369      -0.00007228      -0.00004759       0.03183481
H        1.10792000      -1.98535000       0.35519000       0.00006660      -0.00028852       0.00003143       0.04979372
H       -1.24811000      -1.29584000       0.46021000      -0.00008726      -0.00008431       0.00000456       0.04309839
H       -2.40112000       2.19814000      -0.18909000      -0.00000964       0.00001495       0.00004399       0.05714477
H       -2.57419000       1.25852000       1.30382000       0.00000691      -0.00001047       0.00010042       0.06525289
H       -3.06603000       0.16884000      -1.40466000       0.00003526      -0.00003233      -0.00012141       0.18591736
H       -4.01060000      -0.43384000       1.31015000       0.00000886       0.00000805      -0.00012149       0.00470843
H       -0.09783000       2.77126000      -0.15135000      -0.00001427       0.00005306      -0.00000471       0.03932788
H        2.27163000       2.07191000      -0.28772000       0.00002029       0.00002371      -0.00000579       0.06608678
