13
Properties=species:S:1:pos:R:3:forces:R:3:charge:R:1 charge=0 spin=1 energy=-809.4843454891761 dipole="-0.3128548841025307 0.3655051248307444 0.0818123154576823" pbc="F F F"
O        0.89166000       0.13747000      -0.90059000      -0.00004052      -0.00011878       0.00046364      -0.37237707
C        1.07754000      -0.16734000       0.96309000       0.00030887       0.00045267      -0.00018637       0.02999564
C        0.22030000      -0.76204000      -0.05729000      -0.00015357       0.00003439      -0.00039263       0.10318298
F        3.03283000      -0.03286000      -0.05582000      -0.00048218       0.00008232       0.00015246      -0.54082233
C       -1.29636000      -0.56399000      -0.01617000       0.00003502      -0.00032800      -0.00031887       0.35693950
O       -2.05254000      -1.48813000      -0.01986000      -0.00003224      -0.00003093      -0.00009512      -0.32918224
O       -1.81502000       0.66876000       0.02431000      -0.00015808       0.00036172       0.00041785      -0.12231302
O       -0.92583000       1.75259000       0.14902000      -0.00045832       0.00085271      -0.00098322      -0.27235317
H        1.99446000       0.03744000      -0.78536000       0.00034671      -0.00037331       0.00020490       0.41654913
H        1.83734000      -0.73601000       1.47348000       0.00042447       0.00006926      -0.00019616       0.14958961
H        0.86880000       0.84018000       1.28304000      -0.00007977      -0.00008745       0.00002914       0.14559533
H        0.40753000      -1.81793000      -0.27901000      -0.00008864      -0.00011039       0.00003014       0.08629597
H       -1.19859000       2.36692000      -0.55047000       0.00037825      -0.00080419       0.00087425       0.34889968
