18
Properties=species:S:1:pos:R:3:forces:R:3:charge:R:1 charge=0 spin=1 energy=-963.277681173189 dipole="0.6432099272347542 -0.7264370963344617 0.33059055849688357" pbc="F F F"
O       -0.31035000       2.17209000       0.96427000      -0.00009579      -0.00016644       0.00001431      -0.26661320
N       -0.14697000       1.56749000      -0.13130000       0.00018068      -0.00008931      -0.00001870       0.06388904
C       -0.52999000       0.23489000       0.15942000      -0.00006482       0.00019520       0.00015292      -0.04976085
C       -1.88459000      -0.20275000      -0.33754000       0.00015176      -0.00042485       0.00028416       0.25152353
C       -2.41885000      -1.39397000       0.39981000       0.00019124      -0.00009082      -0.00001174      -0.14754326
O       -2.45813000       0.37027000      -1.22302000      -0.00021286       0.00030806      -0.00041090      -0.33274338
C        0.53073000      -0.74126000       0.19189000      -0.00008390       0.00026182      -0.00010496       0.19962676
O        0.49229000      -1.91395000       0.50527000       0.00002549      -0.00016492       0.00001371      -0.37798956
C        1.83574000      -0.02025000      -0.16564000       0.00016968      -0.00034894      -0.00001390       0.22581317
C        3.02151000      -0.88017000      -0.36877000      -0.00024162      -0.00026090       0.00035400      -0.13377266
O        1.78955000       1.18430000      -0.28181000      -0.00008886       0.00023106      -0.00005722      -0.23019339
H       -0.65199000       0.91446000       1.49452000      -0.00003813       0.00010820       0.00007903       0.22527085
H       -2.65596000      -1.11721000       1.42530000      -0.00000166       0.00003316       0.00000498       0.07697754
H       -1.66871000      -2.18249000       0.43173000      -0.00003560       0.00008870       0.00000664       0.10040753
H       -3.31823000      -1.74765000      -0.09642000      -0.00000911       0.00003250       0.00003354       0.07873559
H        3.94344000      -0.31701000      -0.25373000       0.00008905       0.00001136      -0.00004735       0.09334647
H        2.97222000      -1.27363000      -1.38580000       0.00002872       0.00000984      -0.00009954       0.11424339
H        2.97380000      -1.72946000       0.31074000       0.00003573       0.00026626      -0.00017898       0.10878244
