27
Properties=species:S:1:pos:R:3:forces:R:3:charge:R:1 charge=0 spin=1 energy=-1398.702303234819 dipole="0.597614426914295 0.02518668774508075 -0.8672728712075857" pbc="F F F"
O       -0.45389000      -2.20065000      -0.94918000      -0.00043316      -0.00074178      -0.00007040      -0.30622177
C       -1.08514000      -1.21542000      -0.74754000       0.00074077      -0.00094986      -0.00017574       0.27680329
C       -2.49306000      -0.94870000      -1.22989000       0.00037205       0.00008018       0.00062864       0.05242531
O       -3.17605000       0.08265000      -0.58851000      -0.00020710      -0.00033048       0.00163504      -0.43938550
N       -0.32895000       0.02783000      -0.21556000      -0.00074340       0.00177033      -0.00007794      -0.07333881
C       -0.64823000       1.30723000      -0.81866000      -0.00006048      -0.00068064      -0.00014194      -0.03577475
N       -0.25428000       2.42030000       0.10200000       0.00030370       0.00064751      -0.00012690       0.55812017
O       -0.09832000       2.14607000       1.26014000      -0.00012362       0.00007284       0.00012325      -0.34905590
O       -0.14282000       3.50279000      -0.40785000      -0.00000707      -0.00035995       0.00011329      -0.35860107
C        1.10135000      -0.22067000      -0.11691000      -0.00013201       0.00006986       0.00006943       0.06123242
C        1.85701000      -0.37436000      -1.26890000      -0.00009850       0.00026701       0.00028217      -0.03243310
C        3.21578000      -0.61312000      -1.16065000       0.00002359      -0.00001317      -0.00027045      -0.02215600
C        3.80912000      -0.69657000       0.08787000       0.00020938      -0.00000597       0.00010169      -0.02231174
C        3.04448000      -0.54947000       1.23285000       0.00004876      -0.00003571       0.00023705      -0.01875589
C        1.68358000      -0.31438000       1.13551000      -0.00021424       0.00014014       0.00010049      -0.03015791
Cl      -1.83515000      -1.22883000       1.67500000      -0.00092818       0.00005983      -0.00096414      -0.64541631
H       -3.02919000      -1.90385000      -1.15451000       0.00021395       0.00003547       0.00005401       0.08463536
H       -2.43138000      -0.68428000      -2.29410000      -0.00011776      -0.00001139       0.00007077       0.08084418
H       -3.18026000      -0.14605000       0.36477000       0.00036237       0.00041924      -0.00111044       0.33875206
H       -1.73830000       1.38555000      -0.95664000       0.00049521       0.00003121       0.00025151       0.16166358
H       -0.12964000       1.47172000      -1.76886000      -0.00014469       0.00002274       0.00005250       0.11248420
H        1.39048000      -0.33004000      -2.24182000      -0.00004446      -0.00009591      -0.00022731       0.04453935
H        3.80850000      -0.73863000      -2.05348000       0.00000479       0.00000802       0.00003903       0.05182023
H        4.86908000      -0.88306000       0.16740000      -0.00004906       0.00000982      -0.00001913       0.05242858
H        3.50502000      -0.62093000       2.20573000      -0.00006141       0.00001297      -0.00014603       0.05736040
H        1.07750000      -0.19941000       2.02004000       0.00003778      -0.00004873      -0.00012257       0.07929333
H       -0.80241000      -0.09205000       0.83258000       0.00055279      -0.00037360      -0.00030589       0.32120629
