17
Properties=species:S:1:pos:R:3:forces:R:3:charge:R:1 charge=0 spin=1 energy=-637.6244341557829 dipole="-0.34404584326703325 -0.49872464033835584 -0.14686381581948801" pbc="F F F"
C        2.04007587      -0.66611852      -0.19438001      -0.00032317      -0.00017005       0.00009578       0.05856805
O        2.30196806       0.42185207       0.18903609       0.00002755       0.00016026      -0.00006517      -0.27641892
N        0.31392899      -0.98831979      -0.15044541       0.00038526       0.00033517      -0.00023267      -0.33615034
C       -0.72896536       0.03431686       0.02157790      -0.00003196       0.00019747       0.00010618       0.16684830
C       -2.10347542      -0.64392756      -0.00723067      -0.00026682       0.00020334       0.00019406      -0.12032768
C       -0.60594259       1.03587641      -1.12809383       0.00037693      -0.00037812      -0.00045711      -0.11795927
N       -0.59964141       0.75048085       1.27119222      -0.00040634       0.00038004      -0.00003484      -0.35109294
H        1.25975013      -1.22572389      -0.95229915      -0.00019022       0.00016796       0.00003038       0.25471095
H        0.11325438      -1.86064206       0.32190483      -0.00015986      -0.00026528       0.00003023       0.14549700
H       -2.87709109       0.10945118       0.10455578       0.00037258      -0.00026475       0.00007676       0.05572314
H       -2.19399045      -1.35406482       0.81289633      -0.00004267       0.00007266      -0.00007226       0.03578163
H       -2.24719108      -1.16999928      -0.94742988       0.00002545      -0.00010704      -0.00008113       0.04149964
H       -1.34998108       1.81633759      -1.00390758      -0.00013315      -0.00004437      -0.00007639       0.05302972
H       -0.76187469       0.53817670      -2.08182338       0.00020453       0.00014537       0.00030246       0.03892555
H        0.37946561       1.49409518      -1.12499872      -0.00024067       0.00004091      -0.00013460       0.05162355
H       -0.62063826       0.11599784       2.06160566       0.00009679      -0.00022279       0.00011327       0.13823916
H        0.27288840       1.26514126       1.29916983       0.00030575      -0.00025078       0.00020504       0.16150247
