24
Properties=species:S:1:pos:R:3:forces:R:3:charge:R:1 charge=0 spin=1 energy=-986.2310189341541 dipole="0.6081289396994536 -0.31163790436859606 0.0482168923019634" pbc="F F F"
C       -0.99400000       1.93836000       0.54126000       0.00023518       0.00033738      -0.00016176      -0.13455741
C       -0.37432000       0.93413000      -0.37425000      -0.00089583      -0.00105798       0.00088738       0.31638299
O        0.06452000       1.06353000      -1.47299000      -0.00021525       0.00085889      -0.00061633      -0.38343963
N       -1.23502000      -0.55021000      -0.17562000      -0.00054876       0.00095444      -0.00100619      -0.15072490
C       -1.19453000      -1.37704000      -1.37451000       0.00030760      -0.00012696       0.00046071      -0.03932709
C       -2.39049000      -0.50065000       0.46768000       0.00137998      -0.00019840      -0.00058026       0.16156764
N       -3.37309000      -0.45851000       1.05813000      -0.00082957       0.00002442       0.00045367      -0.27859538
O        0.78457000       0.15049000       0.73850000      -0.00153288      -0.00038554      -0.00096870      -0.39539183
N        1.91563000      -0.34147000       0.01980000       0.00117282       0.00105028       0.00088824      -0.05468648
C        2.90811000       0.71077000      -0.04908000       0.00047707      -0.00034972      -0.00021885      -0.03186156
C        2.40194000      -1.52259000       0.70195000       0.00004490       0.00016043      -0.00002942      -0.03293198
H       -1.12270000       1.54000000       1.54275000       0.00034727      -0.00000138       0.00034165       0.07590529
H       -1.96082000       2.23443000       0.13836000       0.00000078      -0.00041645       0.00025916       0.07788254
H       -0.34356000       2.80915000       0.57895000      -0.00018918       0.00009683      -0.00031355       0.08508348
H       -2.13864000      -1.33207000      -1.91890000      -0.00016340      -0.00000685      -0.00006811       0.05473565
H       -0.39992000      -0.97783000      -2.00941000       0.00008322      -0.00000474      -0.00022782       0.09565936
H       -0.97629000      -2.41430000      -1.11933000      -0.00011065       0.00005376       0.00007293       0.05131455
H       -0.19697000      -0.64014000       0.54023000       0.00013139      -0.00035801       0.00093964       0.32829687
H        3.73909000       0.34619000      -0.64863000       0.00000749      -0.00014521      -0.00002843       0.04500167
H        3.27341000       1.01314000       0.94134000       0.00009997      -0.00009379      -0.00005860       0.02533729
H        2.45916000       1.56624000      -0.54860000       0.00034511      -0.00034036      -0.00002755       0.06219820
H        3.23589000      -1.91702000       0.12566000      -0.00002464       0.00010547       0.00009347       0.04973470
H        1.60934000      -2.27077000       0.73157000      -0.00000513      -0.00015035      -0.00007917       0.04162399
H        2.73639000      -1.31586000       1.72750000      -0.00011747      -0.00000616      -0.00001211       0.03079203
