21
Properties=species:S:1:pos:R:3:forces:R:3:charge:R:1 charge=0 spin=1 energy=-985.5346644329832 dipole="0.8892643079127786 0.5852135616549021 -0.6026924765844732" pbc="F F F"
C       -0.07204000       2.28807000      -0.72545000      -0.00000236      -0.00025729       0.00010793      -0.04497736
C        0.74250000       1.28235000      -0.15335000      -0.00028764       0.00015412       0.00005653      -0.04014840
C        1.51281000       0.30225000      -1.01457000      -0.00015297      -0.00015387       0.00025645      -0.09406785
C        2.02192000      -0.83455000      -0.15328000       0.00001353      -0.00030838      -0.00003953       0.36743259
O        1.54760000      -1.93726000      -0.10680000       0.00008132       0.00029860      -0.00001780      -0.40486181
O        3.06973000      -0.46161000       0.57789000      -0.00006328       0.00005871      -0.00004800      -0.36347631
C       -0.85348000       0.80332000       0.50044000      -0.00033609       0.00029843      -0.00010982       0.22218640
O       -0.85962000       0.90740000       1.72816000       0.00003087       0.00000872      -0.00013143      -0.47478348
C       -1.25080000      -0.44789000      -0.28480000       0.00026859       0.00021051      -0.00053881      -0.10213359
C       -2.61781000      -0.87183000       0.19301000      -0.00018825      -0.00000714       0.00002713       0.21998105
O       -3.53908000      -1.11869000      -0.53002000       0.00008749       0.00004409       0.00010544      -0.30733158
H       -1.49911000       1.65810000      -0.05979000       0.00031659      -0.00039397       0.00016442       0.05013546
H       -0.17533000       3.24671000      -0.24629000       0.00000156       0.00006273       0.00002811       0.08955047
H       -0.39260000       2.21200000      -1.75292000       0.00003472       0.00001352      -0.00002499       0.07865337
H        1.29614000       1.56325000       0.73622000       0.00003239      -0.00002380      -0.00000687       0.08203293
H        0.91441000      -0.09709000      -1.83133000      -0.00008236      -0.00004586      -0.00010167       0.07331413
H        2.38188000       0.82376000      -1.42552000       0.00016575       0.00008137      -0.00006319       0.08148042
H        3.35577000      -1.17877000       1.16621000      -0.00000871      -0.00001909       0.00001653       0.33753317
H       -1.27791000      -0.28258000      -1.36061000       0.00008114      -0.00003253       0.00017267       0.06979184
H       -0.55833000      -1.25872000      -0.04342000       0.00015207      -0.00001832      -0.00005593       0.11215275
H       -2.69250000      -0.93572000       1.29167000      -0.00014436       0.00002946       0.00020282       0.04753581
