29
Properties=species:S:1:pos:R:3:forces:R:3:charge:R:1 charge=0 spin=1 energy=-1274.3237612156593 dipole="0.057325611956025556 -0.5356752172043256 -0.20124170939201882" pbc="F F F"
O        1.70911000       0.46616000       2.22450000       0.00005014      -0.00013965      -0.00065336      -0.44122373
C        1.81378000      -0.08569000       1.07456000      -0.00017518       0.00016247       0.00025633       0.19312747
C        2.34388000      -1.34194000       0.73237000       0.00012816       0.00020521      -0.00045483      -0.06491800
C        2.86821000      -1.46082000      -0.53022000      -0.00028548       0.00027827       0.00031400      -0.00835206
C        2.83871000      -0.40540000      -1.46635000      -0.00005061       0.00000879       0.00019768      -0.04316301
C        2.17873000       0.75996000      -1.20220000      -0.00012670      -0.00029047       0.00041925      -0.00327670
C        1.50429000       0.89661000       0.05109000       0.00039811      -0.00006787       0.00007275      -0.08532234
C        0.13410000       1.51855000      -0.06454000       0.00000421      -0.00031741       0.00023336       0.24077940
O       -0.06416000       2.43271000      -0.82437000      -0.00008137       0.00034533      -0.00037345      -0.36015244
C       -0.97669000       0.90570000       0.75801000       0.00004079      -0.00002766      -0.00007222      -0.10248098
C       -1.97804000       0.23550000      -0.20466000       0.00007745       0.00020032      -0.00005068       0.25700183
O       -3.12417000      -0.06345000       0.53757000       0.00008617      -0.00001388       0.00026323      -0.32564590
C       -4.24632000      -0.39479000      -0.25505000      -0.00026484       0.00029309      -0.00017568       0.03892131
O       -1.46077000      -0.88390000      -0.87133000       0.00007939      -0.00030632      -0.00011185      -0.33597963
C       -1.15313000      -1.99815000      -0.05072000      -0.00007888       0.00021161      -0.00000899       0.03911926
H        1.55614000       1.61390000       1.28618000      -0.00007262       0.00001651       0.00007715       0.28861929
H        2.45734000      -2.11669000       1.47448000       0.00002470      -0.00020883       0.00016603       0.05810115
H        3.36143000      -2.38053000      -0.81001000       0.00010100      -0.00017025      -0.00007590       0.05207806
H        3.32186000      -0.54670000      -2.42034000       0.00005659       0.00000225      -0.00011962       0.04940886
H        2.07262000       1.53747000      -1.94325000      -0.00001483       0.00014987      -0.00013748       0.06643739
H       -0.62836000       0.18538000       1.49322000       0.00007623      -0.00011447       0.00008785       0.07186030
H       -1.52174000       1.70219000       1.26710000      -0.00010535       0.00015388       0.00012725       0.08647423
H       -2.21485000       0.93810000      -1.02174000      -0.00004711      -0.00002578       0.00000607       0.04058846
H       -4.03592000      -1.25057000      -0.90277000       0.00005038      -0.00014990      -0.00009765       0.04521734
H       -4.54405000       0.45727000      -0.87579000       0.00006558      -0.00011959       0.00003462       0.03704807
H       -5.04488000      -0.64323000       0.44027000      -0.00001108      -0.00004293       0.00007807       0.06449096
H       -1.16637000      -2.86774000      -0.70539000      -0.00000499      -0.00001960      -0.00007897       0.05794139
H       -1.89989000      -2.11820000       0.73773000      -0.00002363      -0.00002119       0.00003908       0.05187029
H       -0.15868000      -1.90010000       0.39570000       0.00010378       0.00000820       0.00003795       0.03142972
