19
Properties=species:S:1:pos:R:3:forces:R:3:charge:R:1 charge=0 spin=1 energy=-782.5804869313254 dipole="0.8264707300128185 -0.49125078210232115 -0.04887937605982118" pbc="F F F"
O        0.52906000       1.60100000       0.33157000       0.00003533      -0.00010688      -0.00009550      -0.61339661
C        0.54136000       0.30340000       0.53020000      -0.00026577       0.00007662       0.00013507       0.18453180
C       -0.19796000      -0.58030000      -0.49192000       0.00000427       0.00044150       0.00006016      -0.01343637
N       -1.65044000      -0.46119000      -0.42463000      -0.00013246      -0.00059146       0.00079553      -0.11437698
C       -2.23403000      -0.95074000       0.80981000       0.00007922       0.00077048      -0.00062047      -0.03926132
N       -2.13150000       0.84943000      -0.67761000      -0.00019025      -0.00034261      -0.00053644      -0.28324440
N        2.12163000       0.14902000       0.30894000      -0.00031066       0.00001710      -0.00038046      -0.05999741
O        2.76933000      -0.88527000      -0.41252000      -0.00083628      -0.00048810      -0.00203650      -0.34810628
H        1.96569000       1.26880000      -0.02845000       0.00006820      -0.00009682       0.00025687       0.28273102
H        0.32433000      -0.03462000       1.56031000       0.00002765      -0.00016840       0.00009521       0.00181964
H        0.09191000      -0.26803000      -1.50298000      -0.00011426       0.00000275      -0.00007514       0.03413750
H        0.06077000      -1.63146000      -0.33960000      -0.00001277      -0.00001695       0.00001261       0.02936690
H       -3.31313000      -0.96075000       0.67217000       0.00022481       0.00014624       0.00004417       0.05958968
H       -2.00367000      -0.32255000       1.67902000       0.00011232      -0.00018064      -0.00009460       0.02380185
H       -1.88447000      -1.96572000       0.99043000       0.00005706      -0.00019212      -0.00008517       0.03554095
H       -1.57384000       1.54832000      -0.17763000       0.00011136       0.00020419       0.00030318       0.15818982
H       -2.03637000       1.03204000      -1.67310000       0.00001962       0.00000432       0.00011069       0.13661763
H        2.60535000       0.14877000       1.21262000       0.00011757       0.00036061       0.00015614       0.20346422
H        2.34227000      -0.93561000      -1.28062000       0.00100504       0.00016017       0.00195464       0.32202838
