17
Properties=species:S:1:pos:R:3:forces:R:3:charge:R:1 charge=0 spin=1 energy=-639.2162823416422 dipole="0.5219191328956708 0.173810109812172 0.01685082894375115" pbc="F F F"
C        3.43474000      -0.19714000      -1.04510000       0.00017767       0.00002406       0.00033224      -0.10875211
C        2.43642000      -0.17036000       0.07484000       0.00014270      -0.00005912      -0.00002591       0.01434178
C        1.51789000      -1.25311000       0.15940000       0.00049161      -0.00036679      -0.00049336      -0.03823488
C        0.43284000      -1.23941000       0.96137000      -0.00086723      -0.00020177       0.00045065      -0.07241573
C       -0.54820000       0.68634000       0.05533000      -0.00010986       0.00032605      -0.00001625       0.05116528
Br      -2.19839000      -0.05845000      -0.19548000       0.00056855      -0.00004013       0.00012677      -0.11743395
C        0.28124000       1.58463000       0.02760000      -0.00069977      -0.00027503       0.00007976      -0.09623619
C        2.24920000       0.94496000       0.82683000      -0.00000967      -0.00007649      -0.00030315      -0.08284842
H        4.03851000      -1.10145000      -0.98388000      -0.00015820       0.00017018      -0.00001786       0.04699007
H        4.09456000       0.66555000      -1.00463000       0.00002319      -0.00005989      -0.00011815       0.04012158
H        2.92668000      -0.20131000      -2.00949000       0.00001665      -0.00000236      -0.00013497       0.04584770
H        1.60628000      -2.02679000      -0.59210000       0.00000942       0.00011771       0.00008351       0.03644409
H        0.36647000      -0.62578000       1.84199000      -0.00004603       0.00006833      -0.00007914       0.04760886
H       -0.29751000      -2.03021000       0.89568000       0.00003527       0.00018317      -0.00002665       0.04756016
H        0.76189000       2.50816000      -0.11720000       0.00016354       0.00000555      -0.00005416       0.09864172
H        2.88983000       1.80154000       0.68115000       0.00022235       0.00026517       0.00003002       0.03767485
H        1.73209000       0.92060000       1.76860000       0.00003981      -0.00007864       0.00016667       0.04952520
