20
Properties=species:S:1:pos:R:3:forces:R:3:charge:R:1 charge=0 spin=1 energy=-1267.210116455414 dipole="0.026491234615147536 -0.9170768549339656 -0.43413205501405544" pbc="F F F"
O        2.88351000      -1.95000000       0.92686000       0.00028912       0.00005127       0.00012745      -0.20333331
N        3.17190000      -1.07168000       0.22151000      -0.00030862      -0.00000018      -0.00004755       0.14510340
C        1.74606000      -0.46646000      -0.89316000      -0.00091507       0.00003386       0.00023586      -0.21267671
S        0.31735000       0.75938000      -1.09328000       0.00000266      -0.00020621      -0.00031311       0.55528729
O        0.91397000       2.06863000      -1.27289000      -0.00015543       0.00054320      -0.00005941      -0.46703355
C       -0.20952000       0.71288000       0.74729000       0.00011825       0.00021154       0.00026234      -0.15194603
C       -1.64333000       1.05127000       0.83499000       0.00020101      -0.00001904       0.00026941       0.35508615
O       -2.11387000       2.09963000       1.13661000      -0.00004723      -0.00008276      -0.00012427      -0.30003553
O       -2.55555000       0.01610000       0.53668000      -0.00008858       0.00025414      -0.00003559      -0.25258507
C       -2.26769000      -1.09297000      -0.13980000       0.00019032      -0.00022091      -0.00000572       0.49326530
O       -1.24655000      -1.32503000      -0.72813000      -0.00027843      -0.00009179      -0.00009798      -0.44738550
O       -3.30255000      -1.91138000      -0.08833000      -0.00018563       0.00019233      -0.00001084      -0.34433677
O        2.95559000       0.51615000       1.07288000      -0.00029142      -0.00022840       0.00024585      -0.54831883
H        1.19180000      -1.39919000      -0.86248000       0.00019662       0.00013279       0.00009166       0.09736982
H        2.31426000      -0.38314000      -1.81652000       0.00015359       0.00008335       0.00013329       0.08830762
H        0.00843000      -0.28347000       1.11792000       0.00015051      -0.00006840      -0.00010450       0.09912465
H        0.38092000       1.47582000       1.25061000      -0.00025074      -0.00003506      -0.00016104       0.11728358
H       -3.14204000      -2.71782000      -0.60269000       0.00010040      -0.00021781       0.00000417       0.35807236
H        2.18418000       0.31826000       0.04383000       0.00114715      -0.00032991      -0.00037417       0.32333665
H        3.75220000       1.00008000       0.84583000      -0.00002847      -0.00000199      -0.00003585       0.29541449
