22
Properties=species:S:1:pos:R:3:forces:R:3:charge:R:1 charge=0 spin=1 energy=-851.6864183199397 dipole="1.9146613334364722 -0.19852308762968301 -0.5575205296221433" pbc="F F F"
C       -0.63024000       2.76178000       0.07827000       0.00053382       0.00034400      -0.00014119      -0.10260476
C        0.31047000       1.68042000      -0.44500000       0.00008798       0.00017734       0.00000312      -0.07971493
C        0.41919000       0.56970000       0.54885000      -0.00055506       0.00011736      -0.00005040       0.28960464
O        0.40262000       0.63943000       1.73613000       0.00018498      -0.00035137      -0.00053393      -0.32189855
N        0.97831000      -0.76566000      -0.07238000      -0.00036428      -0.00115349      -0.00025328      -0.06667428
C        1.27709000      -1.71904000       0.99844000      -0.00029830       0.00045820      -0.00003715      -0.06223829
C        2.07496000      -0.60276000      -1.04417000       0.00006363       0.00002443       0.00021425       0.06714523
N        3.12993000       0.19079000      -0.46956000      -0.00007821       0.00040851      -0.00016312      -0.33438175
Br      -1.91176000      -0.60919000      -0.24563000      -0.00052825      -0.00076981       0.00009159      -0.65998890
H       -0.64205000       3.60965000      -0.60078000       0.00009315      -0.00015807       0.00017351       0.04346167
H       -1.63736000       2.36286000       0.15914000      -0.00028436      -0.00011046      -0.00006387       0.07276782
H       -0.31277000       3.09499000       1.06222000      -0.00009920      -0.00010208       0.00002492       0.05383237
H        1.32009000       2.08886000      -0.56010000       0.00022272      -0.00005972      -0.00026525       0.07448072
H       -0.04077000       1.32146000      -1.41070000       0.00006092       0.00025715       0.00037500       0.07305842
H        2.04408000      -1.31898000       1.65886000       0.00003570       0.00000031       0.00016762       0.08161962
H        0.37099000      -1.87492000       1.58106000       0.00004990       0.00008590      -0.00004113       0.10643924
H        1.59916000      -2.66609000       0.57023000       0.00005613      -0.00012398      -0.00004893       0.06571698
H        2.37882000      -1.61728000      -1.35746000      -0.00006790       0.00010192       0.00007285       0.04316445
H        1.68230000      -0.07877000      -1.91886000       0.00012492      -0.00007834       0.00014662       0.07254384
H        3.74292000       0.57151000      -1.17669000      -0.00027155      -0.00026577       0.00005921       0.15957670
H        3.68482000      -0.33066000       0.19770000      -0.00023924      -0.00012279      -0.00020491       0.15837819
H        0.03374000      -1.07309000      -0.52139000       0.00127252       0.00132076       0.00047447       0.26571158
