9
Properties=species:S:1:pos:R:3:forces:R:3:charge:R:1 charge=0 spin=1 energy=-753.1277517368078 dipole="0.2363836503402329 0.15922504278062036 0.18941984113948923" pbc="F F F"
O       -0.77128513      -1.80858815      -0.81312043       0.00010773       0.00027670       0.00009897      -0.21835783
C       -0.49673358      -0.73266470      -0.46538178      -0.00003829      -0.00027447      -0.00023972       0.31952333
F       -1.69127088       0.48961268      -1.22266365      -0.00016676      -0.00005317      -0.00009821      -0.43510982
C        0.75582304       0.07682421      -0.60465393      -0.00003581       0.00015519       0.00012582       0.11913569
Cl       0.66974889       1.74184211      -0.03625951       0.00000635      -0.00017006       0.00004637      -0.08252788
Cl       1.99837029      -0.82953907       0.30285656       0.00011451      -0.00001845       0.00000576      -0.09566673
Cl      -1.44550627      -0.12638907       1.23738789       0.00001959       0.00004204       0.00007356      -0.14658522
H        1.03467206       0.08633381      -1.66362276       0.00002191      -0.00006191      -0.00002830       0.13507440
H       -1.98055843       0.54570817       0.02338761      -0.00002923       0.00010413       0.00001575       0.40451406
