36
Properties=species:S:1:pos:R:3:forces:R:3:charge:R:1 charge=0 spin=1 energy=-1390.1765397146626 dipole="0.7814625330717847 0.18206706178304144 -1.1504717100093869" pbc="F F F"
C        2.73930000       1.85004000      -0.46420000       0.00079865       0.00052796       0.00022314      -0.11029380
C        1.08413000       0.03855000       0.21580000      -0.00037711      -0.00003583      -0.00007338      -0.07849035
C        0.83762000      -1.32472000       0.50486000      -0.00004588       0.00024667      -0.00004692      -0.02162635
C        1.84361000      -2.25886000       0.44752000       0.00012178       0.00006720      -0.00003487      -0.03219417
C        3.13390000      -1.86490000       0.13338000      -0.00004851      -0.00018610       0.00003008      -0.05299828
C        3.43040000      -0.52855000      -0.13761000       0.00024203      -0.00014386      -0.00003482       0.07294938
N        4.74130000      -0.16013000      -0.36877000       0.00010436       0.00017212      -0.00009680      -0.27843241
C        2.40622000       0.43021000      -0.10722000      -0.00026927      -0.00007948      -0.00019405      -0.00356593
C        0.00496000       1.08118000       1.02212000      -0.00057141       0.00009622       0.00021566       0.22602417
O       -0.58223000       0.63174000       1.99715000       0.00022742       0.00018892      -0.00051770      -0.48233086
N       -0.90955000       1.23861000      -0.38550000      -0.00026609      -0.00029426       0.00031978      -0.21340277
C       -1.23209000       2.60643000      -0.73659000      -0.00000016       0.00030309       0.00000116      -0.02070322
C       -2.03358000       0.37294000      -0.35074000       0.00043008      -0.00021563      -0.00005422       0.07752445
C       -3.04907000       0.54209000       0.58352000      -0.00008462       0.00018683       0.00001804      -0.02857265
C       -4.10021000      -0.35590000       0.62791000      -0.00029560      -0.00011935       0.00018184      -0.02775955
C       -4.15280000      -1.41808000      -0.25786000       0.00013457       0.00010036       0.00000892      -0.03376763
C       -3.14189000      -1.58895000      -1.18894000      -0.00020695      -0.00002433       0.00005032      -0.03128303
C       -2.08240000      -0.70207000      -1.23156000       0.00014914      -0.00002431      -0.00020588      -0.04805002
H        3.46838000       2.25607000       0.23745000      -0.00007937      -0.00013344      -0.00009879       0.05401851
H        3.16915000       1.90208000      -1.46693000       0.00003605      -0.00000913      -0.00006879       0.03923623
H        1.85868000       2.48282000      -0.45132000      -0.00056268      -0.00041171      -0.00017261       0.04393749
H       -0.16089000      -1.60010000       0.80937000       0.00010629       0.00005943      -0.00002278       0.05464454
H        1.63890000      -3.29767000       0.65869000       0.00001494      -0.00001003       0.00000697       0.03681820
H        3.93304000      -2.59242000       0.10650000      -0.00012966       0.00009480      -0.00000176       0.03068441
H        5.37437000      -0.91072000      -0.59204000      -0.00007648       0.00002668       0.00004508       0.15869810
H        4.89940000       0.68690000      -0.88725000      -0.00001533      -0.00015948       0.00012560       0.16387433
H        0.52543000       2.05164000       1.07123000       0.00002211      -0.00031246      -0.00004308       0.00029383
H        0.25043000       0.48266000      -0.64097000       0.00050739       0.00013612       0.00043772       0.22312289
H       -1.80180000       3.10152000       0.05609000       0.00014979      -0.00005076       0.00003406       0.04208862
H       -0.31006000       3.16537000      -0.90026000      -0.00010242       0.00006665      -0.00000380       0.03479151
H       -1.81961000       2.63144000      -1.65700000       0.00003488       0.00001649      -0.00006028       0.03706036
H       -2.99924000       1.35830000       1.28583000       0.00003723      -0.00006331       0.00003402       0.04987399
H       -4.88133000      -0.22666000       1.36269000       0.00015648      -0.00001741      -0.00016071       0.03395154
H       -4.97696000      -2.11527000      -0.22073000      -0.00001665      -0.00000137      -0.00001316       0.02980417
H       -3.17516000      -2.41871000      -1.88021000       0.00003184      -0.00002342      -0.00002647       0.02853327
H       -1.28574000      -0.83700000      -1.95074000      -0.00015685       0.00002613       0.00019851       0.02554103
