16
Properties=species:S:1:pos:R:3:forces:R:3:charge:R:1 charge=0 spin=1 energy=-786.8723453669053 dipole="-0.058274834716925766 0.010519366484525708 1.2325701165423832" pbc="F F F"
N       -2.49067000       2.21425000      -1.43925000       0.00001810       0.00001434      -0.00000498      -0.21138222
C       -2.47421000       1.73144000      -0.40480000      -0.00005295      -0.00007166       0.00006183       0.12183402
C       -2.43385000       1.13146000       0.90758000       0.00013892       0.00028603       0.00015794      -0.05529395
C       -1.07881000       0.50584000       1.21305000       0.00014770      -0.00020244      -0.00004773       0.03191847
C        0.14068000       1.12862000       0.71082000      -0.00025709       0.00022378      -0.00020321      -0.07034213
C        1.40390000      -0.84282000       0.55434000       0.00023385      -0.00011128       0.00033010      -0.01453257
Br       2.87224000       0.11229000      -0.25667000      -0.00020135      -0.00004329       0.00001580      -0.15324087
S       -0.66339000      -0.79702000      -0.01853000      -0.00012116      -0.00017484      -0.00001341       0.08037881
Cl      -2.52645000      -1.84797000      -0.37489000       0.00008547       0.00009926      -0.00007482      -0.30658021
H       -3.20922000       0.35943000       0.95618000      -0.00009233      -0.00008447      -0.00006787       0.10449846
H       -2.65030000       1.90199000       1.65400000      -0.00007295      -0.00001667       0.00001190       0.08491777
H       -1.03422000       0.12559000       2.23203000       0.00006405       0.00005508      -0.00018564       0.06522483
H        0.07808000       1.71338000      -0.19276000       0.00002027      -0.00012481       0.00004954       0.08785329
H        0.95459000       1.37522000       1.36961000       0.00000024       0.00044571       0.00015124       0.08539934
H        1.48287000      -0.80488000       1.63262000       0.00019038      -0.00026021      -0.00018729       0.07175527
H        1.50220000      -1.86017000       0.19036000      -0.00010115      -0.00003453       0.00000658       0.07759169
