28
Properties=species:S:1:pos:R:3:forces:R:3:charge:R:1 charge=0 spin=1 energy=-1419.0397325595281 dipole="0.3704644150960647 0.1266671981284639 0.09981971157849209" pbc="F F F"
O       -4.62476000      -0.98364000      -0.49925000      -0.00027975      -0.00027065       0.00031274      -0.27132632
C       -3.92636000      -1.51261000       0.31668000       0.00029715      -0.00010112      -0.00020083       0.18900439
C       -2.51730000      -1.04087000       0.67245000      -0.00048609       0.00012536       0.00026690       0.22110376
O       -1.93954000      -1.50327000       1.62251000      -0.00018768      -0.00021333      -0.00026990      -0.31464178
C       -1.97581000       0.02130000      -0.24331000       0.00019074      -0.00017304       0.00097887      -0.07988778
C       -0.54507000       0.38520000       0.05283000       0.00005751       0.00085386      -0.00061966      -0.12753942
N       -0.70159000       2.37708000       0.50342000      -0.00007243      -0.00012394       0.00001257       0.14170081
O       -1.82960000       2.66821000       0.50271000       0.00103396      -0.00002951      -0.00047925      -0.20841397
C        0.45406000      -0.44206000      -0.74593000      -0.00011541       0.00004571      -0.00059558       0.22792592
O        0.09563000      -1.09166000      -1.70416000       0.00008922       0.00034553       0.00045863      -0.37168115
C        1.84541000      -0.41277000      -0.25517000      -0.00001100      -0.00030034      -0.00004032      -0.01371859
C        2.67957000      -1.48051000      -0.58644000       0.00022066       0.00017739       0.00020034      -0.01544287
C        3.99219000      -1.49893000      -0.15714000      -0.00015902      -0.00001865      -0.00010890      -0.02518965
C        4.48738000      -0.44450000       0.59333000       0.00011703      -0.00034990      -0.00012852      -0.01975489
C        3.66795000       0.62830000       0.90998000      -0.00018278       0.00019549       0.00002321      -0.02389357
C        2.34883000       0.64812000       0.49720000       0.00007550       0.00014538       0.00004298      -0.03291811
O        0.01329000       2.61163000      -1.11442000      -0.00010900      -0.00027808      -0.00006472      -0.52419232
H       -4.24629000      -2.39150000       0.90439000      -0.00004053       0.00011991      -0.00009508       0.05829074
H       -2.63988000       0.89706000      -0.12096000      -0.00018243      -0.00003136      -0.00051991       0.10553520
H       -2.08997000      -0.32302000      -1.27616000       0.00039960      -0.00034422       0.00005230       0.10274289
H       -0.29989000       0.27646000       1.10790000      -0.00034106      -0.00018006       0.00013588       0.10188759
H        2.27564000      -2.28879000      -1.17740000      -0.00002767      -0.00005832      -0.00006501       0.05891704
H        4.63082000      -2.33196000      -0.40976000       0.00000800       0.00002291       0.00003523       0.04323897
H        5.51397000      -0.45575000       0.92829000       0.00004528       0.00003370       0.00002187       0.04266105
H        4.06073000       1.45428000       1.48369000       0.00001753       0.00005333       0.00005231       0.04390509
H        1.72727000       1.49814000       0.73272000      -0.00004536      -0.00001222       0.00003093       0.06301010
H       -0.13871000       1.39873000      -0.75756000      -0.00010530      -0.00004271       0.00027879       0.33171640
H       -0.66787000       2.91280000      -1.72506000      -0.00020665       0.00040884       0.00028412       0.29696047
