28
Properties=species:S:1:pos:R:3:forces:R:3:charge:R:1 charge=0 spin=1 energy=-1578.3854620530628 dipole="-1.002205022769354 0.39048336465194106 0.057518694457842315" pbc="F F F"
O       -3.38266000       0.60366000       0.92290000      -0.00001178       0.00002318      -0.00007341      -0.39850745
C       -3.22107000      -0.46319000       0.39963000       0.00014967       0.00033381      -0.00005745       0.37068944
O       -4.03422000      -1.50239000       0.58721000      -0.00000533      -0.00029619      -0.00002096      -0.36288471
C       -2.10055000      -0.84152000      -0.54368000      -0.00003998      -0.00008146       0.00003797      -0.13665796
C       -1.54184000       0.30380000      -1.30995000      -0.00002086       0.00026035      -0.00040008       0.37383302
O       -1.43530000       0.38777000      -2.49428000      -0.00002985      -0.00008675       0.00029117      -0.33814210
O        0.84898000       0.08580000      -0.56907000      -0.00029509      -0.00010795      -0.00022370      -0.47145597
C        1.14944000      -1.04710000      -0.12787000       0.00041397       0.00036286       0.00013409       0.38105621
O        0.45589000      -1.79062000       0.54586000       0.00021242      -0.00009951      -0.00039098      -0.46467835
C        2.61711000      -1.50317000      -0.49175000      -0.00014841      -0.00071521       0.00043653      -0.09659714
N        3.49084000      -0.45868000       0.00618000       0.00010923      -0.00011782       0.00001341       0.55020525
O        4.02532000      -0.63545000       1.07952000       0.00004087       0.00038827      -0.00017053      -0.39555442
O        3.58324000       0.55546000      -0.65016000       0.00013004      -0.00007479       0.00005220      -0.39165750
O       -1.20055000       1.41084000      -0.52865000      -0.00039715       0.00011550       0.00017547      -0.24788190
C        0.07491000       1.37476000       0.74567000       0.00021686      -0.00009337       0.00029951       0.17359653
C       -0.30740000       0.81747000       1.86012000      -0.00029096      -0.00008416      -0.00017747      -0.12565780
C        0.95248000       2.50609000       0.41965000      -0.00002941       0.00000843       0.00006282      -0.13352234
H       -4.74662000      -1.28019000       1.20777000      -0.00010948       0.00003837       0.00006059       0.33869387
H       -2.44929000      -1.60712000      -1.23761000       0.00005545       0.00022843       0.00018236       0.11174657
H       -1.28096000      -1.29249000       0.05911000      -0.00006070      -0.00031373       0.00000153       0.18014332
H        2.68463000      -1.55741000      -1.57805000      -0.00005714       0.00020294       0.00012260       0.09547479
H        2.83126000      -2.45042000      -0.00002000      -0.00001886       0.00002378      -0.00021543       0.09444686
H       -0.83960000       2.08798000      -1.13596000       0.00010211      -0.00006186      -0.00004271       0.36685956
H        0.15132000       1.14974000       2.77596000      -0.00005544       0.00003059      -0.00002464       0.11446451
H       -0.99537000       0.00184000       1.94567000       0.00009021       0.00017764       0.00000940       0.10418850
H        1.49942000       2.31972000      -0.50390000       0.00007598      -0.00002857      -0.00009200       0.12171746
H        0.39316000       3.43895000       0.35278000       0.00000230      -0.00005358      -0.00002784       0.07726026
H        1.69217000       2.59665000       1.21337000      -0.00002869       0.00002080       0.00003757       0.10882145
