30
Properties=species:S:1:pos:R:3:forces:R:3:charge:R:1 charge=0 spin=1 energy=-1399.2797685241223 dipole="0.43783800125754535 0.0927482624524846 -0.1226031772345235" pbc="F F F"
O        0.82379556      -1.39500842       0.49492156      -0.00086895      -0.00014264       0.00147562      -0.52774557
C        1.98536797      -1.50161309      -0.19839111       0.00037133       0.00004960      -0.00118174       0.15000980
C        1.55243420      -0.92680843      -1.54640738       0.00039562      -0.00082493      -0.00033324      -0.07622255
C        0.06859593      -0.78249094      -1.23535271      -0.00093786      -0.00037212       0.00008164       0.02312574
N       -0.68158491       0.50083675       0.18879076      -0.00008789      -0.00001166      -0.00008073      -0.13533858
C       -1.01124018       1.85709813      -0.24248108      -0.00092753      -0.00060924       0.00035531      -0.00533254
C       -2.35715359       1.98847546      -0.94254713       0.00021981      -0.00158395      -0.00030229      -0.11758041
C       -1.62082628      -0.16155562       1.04897898       0.00012237      -0.00043712      -0.00004423      -0.01282173
N       -2.83942117      -0.66330972       0.35756978      -0.00004772      -0.00027681      -0.00053178       0.55533416
O       -3.83354043      -0.72693006       1.04008467       0.00019608       0.00004767       0.00006453      -0.37819669
O       -2.76049655      -1.00113279      -0.79409326      -0.00003824       0.00025235       0.00051757      -0.36227893
C        3.15613457      -0.68764567       0.49497671       0.00081425      -0.00070460      -0.00060764      -0.07702006
N        2.74789150       0.68767004       0.52451938      -0.00051303       0.00143225      -0.00018428       0.53859786
O        3.17648131       1.43674701      -0.33265764       0.00006889      -0.00042260       0.00033377      -0.40431748
O        1.89396161       1.00681869       1.33624146      -0.00003932      -0.00027087       0.00020727      -0.41067547
H        0.21587718       0.50700887       0.69155875       0.00011952       0.00002817      -0.00008371       0.24708648
H        2.35935258      -2.53858017      -0.25264707       0.00028225       0.00004827      -0.00008921       0.02091854
H        2.01631948       0.03657277      -1.75811754       0.00017265       0.00032587      -0.00015498       0.05997479
H        1.70378655      -1.56296193      -2.42283560      -0.00025314       0.00039101       0.00052349       0.05432950
H       -0.41130115      -0.05064909      -1.87951562      -0.00004187       0.00002361      -0.00033362       0.06938995
H       -0.48171502      -1.70939205      -1.21497256       0.00029637       0.00051942      -0.00004546       0.10654399
H       -0.21294858       2.17295796      -0.91900574       0.00062923       0.00015007      -0.00050335       0.06710229
H       -0.98738974       2.52539092       0.62814394       0.00012333       0.00017557       0.00022851       0.05315141
H       -2.44784907       1.27685496      -1.75909331       0.00015740       0.00060452       0.00063796       0.06209602
H       -3.18412199       1.83452972      -0.25260265       0.00023456       0.00013207      -0.00003066       0.04452071
H       -2.44945425       2.99247247      -1.34841895       0.00012319       0.00084467      -0.00029013       0.05307515
H       -1.97458362       0.46805428       1.87786302      -0.00006461       0.00002781      -0.00011725       0.09165772
H       -1.10937089      -1.04628226       1.44884307       0.00009546       0.00033456      -0.00001198       0.14325339
H        3.24608585      -1.06663709       1.51239440      -0.00001352       0.00012109       0.00022651       0.09285673
H        4.07617314      -0.79212069      -0.07720716      -0.00058865       0.00014796       0.00027407       0.07450577
