21
Properties=species:S:1:pos:R:3:forces:R:3:charge:R:1 charge=0 spin=1 energy=-1215.3304476507883 dipole="0.3448612008305521 0.8112301259732744 0.4391733657348823" pbc="F F F"
C       -0.57841000       3.31969000       0.22325000       0.00003821       0.00001290      -0.00015414       0.01795916
O       -0.30401000       1.94574000       0.49588000       0.00005784      -0.00018532      -0.00016871      -0.23219417
C       -0.47884000       1.10108000      -0.50042000       0.00012282       0.00016933      -0.00002404       0.42688698
O       -0.75081000       1.35218000      -1.63090000       0.00002570       0.00003570       0.00021689      -0.35791809
N       -0.31190000      -0.25559000      -0.01742000      -0.00002398       0.00050779       0.00039785      -0.19198071
C       -1.65218000      -0.71925000       0.91348000      -0.00022773       0.00000370       0.00007955       0.25851077
O       -2.43677000       0.12202000       1.16727000       0.00020548      -0.00018598       0.00001953      -0.28877080
C        0.92990000      -0.65312000       0.55110000       0.00026102       0.00005332      -0.00003265       0.29325539
O        0.99831000      -1.59741000       1.28369000      -0.00007611      -0.00014685       0.00012193      -0.33347050
C        2.11598000       0.17203000       0.11418000      -0.00026031       0.00023470      -0.00032184      -0.11699589
C        3.37551000      -0.67097000       0.03265000       0.00026662      -0.00001906       0.00000772       0.21919495
O        4.24047000      -0.49609000      -0.76970000      -0.00024021      -0.00008433       0.00020646      -0.28475992
Cl      -2.21767000      -1.92027000      -0.83982000      -0.00012997      -0.00014107      -0.00012077      -0.36279961
H       -0.17998000       3.87948000       1.06501000      -0.00003187      -0.00003677      -0.00000343       0.08926782
H       -1.65572000       3.46852000       0.14396000       0.00001965       0.00001521       0.00000443       0.08760597
H       -0.10200000       3.62429000      -0.70990000      -0.00005600      -0.00002430       0.00004997       0.07916114
H       -1.27875000      -1.55839000       1.49057000      -0.00003773       0.00010356      -0.00002622       0.10955475
H        1.94558000       0.68244000      -0.83545000       0.00009572      -0.00001357       0.00010003       0.08948814
H        2.29762000       0.92695000       0.88717000      -0.00004662      -0.00009814      -0.00000323       0.11896569
H        3.41651000      -1.46487000       0.79692000       0.00004256       0.00005309      -0.00013214       0.05886489
H       -0.80885000      -1.03302000      -0.81484000      -0.00000511      -0.00025392      -0.00021719       0.32017403
