29
Properties=species:S:1:pos:R:3:forces:R:3:charge:R:1 charge=0 spin=1 energy=-1274.1122945279678 dipole="-0.3045386877523034 0.9029937791815811 -0.0926790365253047" pbc="F F F"
O       -2.21423000      -1.97950000       0.87861000      -0.00009397       0.00028575      -0.00013129      -0.43479780
C       -2.05758000      -0.72917000       0.65033000      -0.00029859      -0.00020989       0.00020574       0.18810449
C       -2.57189000       0.38352000       1.33410000       0.00005831      -0.00000804      -0.00030452      -0.06479139
C       -2.75943000       1.52199000       0.58940000      -0.00002346       0.00013481       0.00004804      -0.01020222
C       -2.41516000       1.60274000      -0.77684000      -0.00016363       0.00035045       0.00016379      -0.04673076
C       -1.75397000       0.58481000      -1.40337000       0.00017228      -0.00021859       0.00015987      -0.00580850
C       -1.41562000      -0.58025000      -0.64498000       0.00030069      -0.00000937      -0.00030463      -0.09683864
C        0.01874000      -1.01415000      -0.83288000      -0.00020490       0.00043246       0.00044658       0.22965407
O        0.54260000      -1.01726000      -1.91578000      -0.00001191      -0.00038262      -0.00018716      -0.34683472
C        0.74545000      -1.36298000       0.46255000       0.00005308       0.00039095       0.00034710       0.05754499
O        2.10654000      -1.65588000       0.27382000       0.00016860       0.00017868      -0.00048911      -0.29056921
C        2.91555000      -0.56303000      -0.04496000      -0.00033641      -0.00008927       0.00011300       0.21798359
O        2.82354000       0.44470000       0.93079000       0.00015535      -0.00002832       0.00001446      -0.33178725
C        2.73674000       1.77350000       0.45302000      -0.00004070       0.00007979       0.00015022       0.08147656
C        1.35909000       2.15409000      -0.08677000      -0.00025626       0.00001557       0.00006832      -0.11354061
H       -1.73385000      -1.97258000      -0.51045000       0.00011858      -0.00014659       0.00006780       0.28588463
H       -2.92688000       0.29878000       2.34854000      -0.00003608      -0.00000578       0.00012649       0.06237892
H       -3.23105000       2.37871000       1.04874000       0.00002556      -0.00013889      -0.00006578       0.05321068
H       -2.65452000       2.50417000      -1.31867000       0.00003190      -0.00013847       0.00005810       0.04880643
H       -1.40821000       0.67162000      -2.42256000       0.00001073      -0.00001792      -0.00017479       0.06229982
H        0.30784000      -2.26533000       0.89632000       0.00016504      -0.00014485      -0.00013226       0.09274881
H        0.62369000      -0.53576000       1.17540000      -0.00027126      -0.00011721       0.00016874       0.06397866
H        3.93371000      -0.97674000      -0.06014000       0.00010314      -0.00002932       0.00005427       0.04941393
H        2.67160000      -0.16406000      -1.04128000       0.00009158      -0.00010251      -0.00023995       0.03087013
H        2.97614000       2.38868000       1.32398000       0.00001796       0.00003586      -0.00011708       0.05821134
H        3.50093000       1.94486000      -0.31691000      -0.00000455      -0.00011915       0.00005469       0.02681811
H        1.36462000       3.20014000      -0.38009000      -0.00000424      -0.00002219       0.00006863       0.04702726
H        0.59777000       2.00908000       0.67673000       0.00021261      -0.00007126      -0.00014636       0.04252445
H        1.09917000       1.55554000      -0.95679000       0.00006055       0.00009593      -0.00002294       0.04296426
