21
Properties=species:S:1:pos:R:3:forces:R:3:charge:R:1 charge=0 spin=1 energy=-949.1065855172105 dipole="0.24423768057258616 -0.12819689518982935 0.2098584490511619" pbc="F F F"
C        3.35461000      -0.36249000       0.12809000      -0.00009263      -0.00031092       0.00007331      -0.03019104
N        2.13647000      -1.01764000      -0.31792000       0.00022355       0.00020369      -0.00007663      -0.19735776
N        0.99745000      -0.17699000      -0.38372000       0.00031862       0.00034085       0.00047350      -0.21707204
C        0.34585000      -0.03787000       0.91160000      -0.00028490      -0.00068374      -0.00029455       0.01807520
C       -0.97476000       0.68273000       0.73852000       0.00031455       0.00046422      -0.00026087      -0.14334698
C       -0.91869000       2.05479000       0.20560000      -0.00040902       0.00007596       0.00046845       0.19988863
O        0.01927000       2.54446000      -0.38171000       0.00005012       0.00017930      -0.00016636      -0.36411491
N       -2.22297000      -0.98489000       0.20092000      -0.00038103      -0.00004249       0.00043305       0.16140569
O       -1.67748000      -1.94381000       0.55217000       0.00018922       0.00013019       0.00006046      -0.17071476
O       -1.73402000      -0.53375000      -1.41415000       0.00014221       0.00000632      -0.00016179      -0.49519456
H        3.60116000       0.53393000      -0.46047000       0.00002880       0.00003593      -0.00009766       0.01667366
H        3.24120000      -0.07208000       1.17260000      -0.00004890       0.00002516       0.00001264       0.03924142
H        4.17406000      -1.07344000       0.05442000      -0.00006698       0.00002788      -0.00000656       0.04058062
H        2.27597000      -1.40186000      -1.24992000      -0.00006083      -0.00003641       0.00001625       0.13633855
H        1.22799000       0.75918000      -0.73664000      -0.00012369      -0.00026440       0.00004129       0.15209698
H        0.16748000      -1.05815000       1.28452000       0.00007586      -0.00008842       0.00012855       0.06536105
H        0.96487000       0.47738000       1.66296000       0.00005954       0.00010736      -0.00031961       0.03114445
H       -1.60745000       0.64811000       1.62002000      -0.00014238      -0.00020923      -0.00003757       0.07627634
H       -1.83576000       2.63992000       0.39436000       0.00006171      -0.00008039      -0.00018683       0.02254015
H       -1.34830000       0.28378000      -0.54078000       0.00007174      -0.00000997       0.00006039       0.34002271
H       -0.94204000      -1.03825000      -1.64930000       0.00007445       0.00012910      -0.00015946       0.31834662
