19
Properties=species:S:1:pos:R:3:forces:R:3:charge:R:1 charge=0 spin=1 energy=-730.6193105627468 dipole="0.07783225872932906 -0.2807435510815354 -0.08881707707018513" pbc="F F F"
N       -1.83069000       1.15367000       0.54944000       0.00041295       0.00084604      -0.00011947      -0.32379163
C       -1.51743000       0.06932000       0.17287000      -0.00110192      -0.00040520       0.00016636       0.17685551
O       -3.13087000      -0.30176000      -0.46268000       0.00047910      -0.00078181      -0.00023810      -0.59333108
C       -0.54951000      -1.01763000       0.04140000      -0.00007275      -0.00011769      -0.00050392       0.00517654
N        0.75744000      -0.71284000       0.59261000      -0.00019123       0.00020404      -0.00015418      -0.18745729
N        1.60668000      -0.05201000      -0.32561000       0.00010875       0.00030994       0.00005560      -0.11585098
C        1.50148000       1.39480000      -0.28406000       0.00009623      -0.00014193       0.00014705      -0.03994008
C        2.96937000      -0.49981000      -0.11101000       0.00010687      -0.00022945      -0.00019377      -0.04194764
H       -3.07100000       0.85136000       0.04296000       0.00006449       0.00001380       0.00033789       0.35307837
H       -3.71946000      -0.90831000      -0.94979000       0.00017227       0.00039517       0.00004115       0.24764088
H       -0.94859000      -1.89576000       0.56313000      -0.00007187       0.00006779       0.00018195       0.07466910
H       -0.41724000      -1.26922000      -1.01418000       0.00006185      -0.00006149       0.00008326       0.08756228
H        0.67313000      -0.20970000       1.47950000       0.00009405      -0.00033508       0.00014329       0.13068680
H        1.83670000       1.81026000       0.67917000      -0.00004186      -0.00002188      -0.00014567       0.01453933
H        0.46633000       1.68668000      -0.44946000      -0.00015723       0.00002620      -0.00001174       0.05081334
H        2.11685000       1.81125000      -1.07915000      -0.00000393       0.00000738      -0.00001508       0.04231596
H        2.97876000      -1.58697000      -0.12640000      -0.00004673       0.00013646       0.00009662       0.05381013
H        3.38357000      -0.15372000       0.84672000       0.00011487       0.00013187       0.00018715       0.01924312
H        3.59049000      -0.12350000      -0.92130000      -0.00002389      -0.00004414      -0.00005838       0.04592735
