13
Properties=species:S:1:pos:R:3:forces:R:3:charge:R:1 charge=0 spin=1 energy=-675.597319636883 dipole="-0.010169627567107351 0.6089154058718376 0.22144357840879003" pbc="F F F"
F        2.05288000      -1.88047000      -0.53765000       0.00008386      -0.00004016       0.00002492      -0.24469399
C        1.76346000      -0.74414000       0.15261000      -0.00019039       0.00036577       0.00013458       0.16378326
C        2.33979000       0.42297000      -0.33345000      -0.00016716      -0.00017445       0.00001461      -0.09087742
C        1.86444000       1.70810000       0.12544000       0.00024251      -0.00011320      -0.00001050      -0.03545861
C        0.36636000       1.73072000      -0.18846000      -0.00034259      -0.00039424       0.00049223       0.00181213
Br      -1.89585000      -0.17053000      -0.09835000       0.00013180       0.00009113      -0.00000435       0.00265246
N       -0.48488000       0.90354000       0.00044000       0.00041080       0.00031628      -0.00038314       0.00382497
C        0.84115000      -0.84015000       1.14935000      -0.00019270      -0.00018558      -0.00028293      -0.12467457
H        2.89464000       0.36432000      -1.25608000      -0.00011156      -0.00009578      -0.00005235       0.05021848
H        1.86999000       1.84171000       1.20911000      -0.00021664       0.00028971       0.00004570       0.09309073
H        2.34768000       2.55649000      -0.35197000       0.00001109      -0.00004104      -0.00009095       0.08200289
H        0.72235000      -0.06750000       1.88329000       0.00015540      -0.00000812       0.00011717       0.04062717
H        0.38710000      -1.79195000       1.36079000       0.00018559      -0.00001033      -0.00000500       0.05769249
