20
Properties=species:S:1:pos:R:3:forces:R:3:charge:R:1 charge=0 spin=1 energy=-1043.5386671617155 dipole="0.14061590723740122 -0.04506996555942651 0.08213765011152298" pbc="F F F"
C        1.93000000       1.53814000       0.89562000      -0.00024581      -0.00014372       0.00007605      -0.10836846
C        1.04474000       0.35660000       0.52419000       0.00022156       0.00047665      -0.00026930      -0.06941341
C        1.82739000      -0.88966000       0.15161000       0.00024447      -0.00016827       0.00015442       0.36403816
O        1.31672000      -1.96220000      -0.05146000      -0.00019728      -0.00008551      -0.00013625      -0.42141018
O        3.13500000      -0.68363000       0.04769000      -0.00010529       0.00018987       0.00000292      -0.35247320
C        0.15754000       0.68025000      -0.68615000       0.00015935       0.00032845      -0.00015922       0.23755425
O        0.40310000       1.57210000      -1.45868000       0.00002760      -0.00009533       0.00010796      -0.35080428
C       -1.02827000      -0.21308000      -0.81315000      -0.00027961      -0.00050130      -0.00009280      -0.19168501
N       -2.48054000      -0.69179000       0.52356000       0.00029213       0.00001720       0.00022111       0.17471598
O       -3.41007000      -1.10950000      -0.02557000      -0.00019753       0.00001520      -0.00019387      -0.18681605
O       -2.60683000       1.08578000       0.73632000       0.00029474      -0.00013204      -0.00018439      -0.53221652
H        2.52163000       1.84742000       0.03868000       0.00010923       0.00001000      -0.00014022       0.07142378
H        2.59951000       1.27524000       1.70938000       0.00001456      -0.00000910       0.00006025       0.05297920
H        1.30642000       2.37332000       1.20375000      -0.00003153       0.00001773      -0.00001781       0.05522134
H        0.37998000       0.08114000       1.34883000      -0.00008032      -0.00013455       0.00013650       0.09102282
H        3.59034000      -1.49972000      -0.21432000       0.00000770      -0.00011272      -0.00001056       0.33473285
H       -0.70652000      -1.22784000      -0.58480000      -0.00009842       0.00006964       0.00013643       0.12539720
H       -1.50375000      -0.15764000      -1.79202000       0.00023037       0.00012321       0.00005435       0.07555540
H       -1.71483000       0.69046000      -0.08940000      -0.00004912       0.00009709       0.00023343       0.33538491
H       -3.40070000       1.40625000       0.29600000      -0.00031681       0.00003752       0.00002102       0.29516123
