21
Properties=species:S:1:pos:R:3:forces:R:3:charge:R:1 charge=0 spin=1 energy=-835.557659394517 dipole="-0.2521178873282827 0.5468912856023725 0.37115610279622385" pbc="F F F"
N        0.82359000      -0.73684000       0.34217000      -0.00025013      -0.00002150       0.00000158      -0.29625795
C       -0.22225000      -0.07908000       1.07117000      -0.00015138      -0.00003758       0.00011327       0.08438922
N       -1.24950000       0.53766000       0.25135000      -0.00005581      -0.00007898       0.00013951      -0.07668243
C       -0.74815000       1.48848000      -0.71968000      -0.00019207      -0.00032968      -0.00022392      -0.03215582
O       -1.99238000      -0.47692000      -0.43397000      -0.00008865       0.00000721      -0.00000068      -0.26960881
C       -3.32484000      -0.50216000       0.01680000       0.00008991      -0.00023083      -0.00009293       0.03658361
C        1.99397000      -0.30692000      -0.02689000       0.00059352      -0.00030838      -0.00028666       0.24463545
C        2.68528000       0.97223000       0.27887000      -0.00041549       0.00036657       0.00024160      -0.12273617
O        2.51968000      -1.23732000      -0.73798000      -0.00019798       0.00005090       0.00013967      -0.45236015
H        1.33002000      -1.73757000      -0.41458000       0.00002690       0.00000634      -0.00002024       0.33476926
H       -0.72180000      -0.82832000       1.69361000       0.00008234       0.00010463      -0.00012833       0.05235238
H        0.17805000       0.71520000       1.71588000       0.00002183       0.00001075      -0.00000757       0.02953144
H       -0.26081000       2.29752000      -0.17833000       0.00017357       0.00029370       0.00018628       0.04294079
H       -0.04406000       1.04226000      -1.43122000      -0.00000734       0.00003827      -0.00001077       0.03337818
H       -1.59835000       1.88775000      -1.26961000       0.00006711      -0.00002976       0.00002009       0.05392331
H       -3.38219000      -0.73844000       1.08390000       0.00001675       0.00001442      -0.00003062       0.03649666
H       -3.82586000       0.45349000      -0.16534000      -0.00004818       0.00003159      -0.00003050       0.03874291
H       -3.80832000      -1.28794000      -0.56031000       0.00009346       0.00020448       0.00010963       0.06367487
H        2.24066000       1.45933000       1.14313000       0.00008693       0.00003398      -0.00007011       0.05144902
H        2.61332000       1.63657000      -0.58128000       0.00003410       0.00001011       0.00000569       0.07261284
H        3.73832000       0.77316000       0.46346000       0.00012061      -0.00013623      -0.00005499       0.07432138
