27
Properties=species:S:1:pos:R:3:forces:R:3:charge:R:1 charge=0 spin=1 energy=-1168.9718461073978 dipole="0.2283243739497663 0.16539222081735247 -0.7487255883931048" pbc="F F F"
C        0.98741000       2.37506000      -0.78340000       0.00013701       0.00052639      -0.00024521      -0.14055498
C        1.52470000       1.06151000      -0.59793000       0.00059965       0.00004897      -0.00096106       0.07940339
C        2.84172000       0.87080000       0.02482000       0.00026802       0.00041157       0.00013454      -0.11885751
O       -0.18350000       1.40065000       1.28442000       0.00001486      -0.00022181       0.00023473      -0.52270525
C       -1.06551000       0.70944000       0.66866000      -0.00036984       0.00051793      -0.00013201       0.17643179
C       -2.42214000       0.67151000       1.08242000      -0.00019020       0.00030125      -0.00003377      -0.06723129
C       -3.35918000      -0.07766000       0.42024000       0.00015606       0.00017453       0.00023338      -0.03271841
C       -3.00744000      -0.82482000      -0.70087000       0.00026392      -0.00029792      -0.00035199      -0.04810052
C       -1.70356000      -0.79543000      -1.15205000      -0.00046363       0.00020395      -0.00016313      -0.04244149
C       -0.73372000      -0.05788000      -0.48826000       0.00049720      -0.00131353       0.00074658      -0.06036434
C        0.69770000      -0.10862000      -0.99028000      -0.00066268       0.00037745       0.00025912       0.11232204
O        1.32424000      -1.38582000      -0.79376000      -0.00011404      -0.00006284      -0.00041687      -0.30257895
C        1.16449000      -2.00188000       0.41611000      -0.00012787       0.00013993       0.00025029       0.24724967
F        2.17963000      -1.67522000       1.29254000       0.00010524       0.00008682      -0.00006394      -0.26015263
H        0.39888000       2.45078000       0.21943000      -0.00017464      -0.00001846       0.00018003       0.22106654
H        1.71829000       3.17402000      -0.81178000      -0.00013597      -0.00029555       0.00021220       0.07440265
H        0.22654000       2.46151000      -1.55382000       0.00011505       0.00008591      -0.00019590       0.06921152
H        2.70682000       0.67350000       1.09124000       0.00004529      -0.00045417       0.00000656       0.12972119
H        3.46592000       1.75422000      -0.07958000      -0.00012387       0.00005835       0.00003869       0.06507657
H        3.34011000      -0.00595000      -0.38672000      -0.00012738      -0.00000476       0.00019856       0.09248864
H       -2.69039000       1.27331000       1.93804000       0.00006840      -0.00016129       0.00000010       0.04109036
H       -4.38220000      -0.08815000       0.76905000      -0.00004308       0.00003777       0.00002046       0.02885900
H       -3.74439000      -1.42670000      -1.20986000       0.00005996       0.00006016       0.00000181       0.02632513
H       -1.41947000      -1.37517000      -2.02019000       0.00006164      -0.00000265       0.00009141       0.02269369
H        0.62196000      -0.04596000      -2.08889000       0.00016411      -0.00003950      -0.00007157       0.09359839
H        0.22493000      -1.73536000       0.92024000      -0.00001799      -0.00016660      -0.00004647       0.05348511
H        1.24371000      -3.08393000       0.25783000      -0.00000521       0.00000809       0.00007342       0.06227969
