16
Properties=species:S:1:pos:R:3:forces:R:3:charge:R:1 charge=0 spin=1 energy=-1150.8001096481942 dipole="1.1252336845255189 0.41641852610675145 -0.16744910106140312" pbc="F F F"
O        1.39772101      -2.20454714       0.09187708      -0.00001889      -0.00033696       0.00012295      -0.35355497
C        1.64906875      -1.09174634      -0.25289523       0.00018573      -0.00005313      -0.00003444       0.38004580
C        3.05589944      -0.51267618      -0.35404520       0.00075551      -0.00123447       0.00095729      -0.10353326
C        3.24149876       0.62877344       0.64157885      -0.00050739      -0.00074452       0.00015934       0.10587825
F        2.45857495       1.70385026       0.27983533      -0.00050462       0.00086271      -0.00028878      -0.25764455
O        0.70732411      -0.19822137      -0.58415405      -0.00045172       0.00031775      -0.00009336      -0.48253079
S       -1.14337587      -0.46619195       0.01412296       0.00003342       0.00075554      -0.00032112       1.50569100
O       -1.40946915      -1.36566561      -1.04713583      -0.00019695      -0.00057553      -0.00075894      -0.53341707
O       -0.73768442      -0.74347582       1.34364612       0.00023395      -0.00001108       0.00087720      -0.54578439
Cl      -3.09044011       0.17100132       0.37443969      -0.00016033       0.00000828      -0.00002642      -0.25820539
Cl      -0.78662740       1.77485373      -0.46846237      -0.00010453      -0.00011764       0.00030291      -0.18034503
H        3.21436018      -0.13862905      -1.36740833       0.00014992       0.00018039      -0.00097579       0.09332402
H        3.77007841      -1.30543094      -0.13756687      -0.00068149       0.00071164      -0.00020439       0.09095463
H        2.93363060       0.34025741       1.65074675      -0.00012790      -0.00014405       0.00039279       0.07164722
H        4.27592533       0.98393153       0.64426449       0.00121353       0.00044465      -0.00006088       0.07883930
H        0.53205542       1.11708671      -0.58025340       0.00018176      -0.00006357      -0.00004835       0.38863523
