11
Properties=species:S:1:pos:R:3:forces:R:3:charge:R:1 charge=0 spin=1 energy=-847.4718628259931 dipole="0.13300581775378242 0.2928701891315329 -0.5415254287144858" pbc="F F F"
O        1.34306863       2.10565700       0.15179936       0.00000121      -0.00088431       0.00035373      -0.16180567
N        1.19843542       0.97583842       0.63369449       0.00011907       0.00121563      -0.00027796       0.07183681
C        0.70761560       0.16453101      -0.38534051       0.00024511       0.00011169      -0.00009914       0.08311976
C        1.10318999      -1.26133892      -0.45219047      -0.00061037      -0.00071371      -0.00058924       0.20180514
O        2.09838451      -1.71117811       0.03898048       0.00034528      -0.00004180       0.00033106      -0.28285844
O       -0.65282540       0.44135474      -0.73842223       0.00029332       0.00014129      -0.00044690      -0.25067507
C       -1.64647238      -0.05874879      -0.02400167      -0.00060826      -0.00050057       0.00067494       0.51952615
O       -2.78473315       0.06801676      -0.26441112       0.00027341       0.00006067       0.00011027      -0.30118228
F       -1.20500398      -0.74905550       1.04910905      -0.00006324       0.00024984      -0.00053629      -0.20278803
H        1.00428587       1.47126790      -1.10886153      -0.00021345      -0.00009139       0.00022228       0.28008694
H        0.42871489      -1.85882451      -1.09665587       0.00021792       0.00045267       0.00025724       0.04293469
