29
Properties=species:S:1:pos:R:3:forces:R:3:charge:R:1 charge=0 spin=1 energy=-1219.6860732707476 dipole="-0.15298602875559533 0.4341622186793232 0.6705418284082734" pbc="F F F"
C       -3.43794000      -2.24646000      -0.49887000      -0.00003796       0.00011600      -0.00005996      -0.03005353
N       -2.15574000      -2.23690000       0.17742000      -0.00003322       0.00010712       0.00021609      -0.24586285
C       -1.99041000      -1.19105000       1.14960000       0.00019254      -0.00031370      -0.00003379       0.01386769
C       -1.87001000       0.25316000       0.58090000      -0.00051475      -0.00054842      -0.00059220      -0.09206123
C       -0.60399000       0.32105000      -0.21627000      -0.00025721       0.00052285       0.00005240       0.36663073
O       -0.36456000      -0.33529000      -1.19861000       0.00022307      -0.00045918      -0.00038098      -0.41779581
O        0.49563000       0.72558000       0.62327000       0.00053854       0.00050449       0.00005961      -0.22272538
C        1.77673000       0.51017000       0.04315000       0.00007187      -0.00009534       0.00000178       0.07772796
C        2.18931000      -0.95850000       0.17089000      -0.00027290      -0.00007143      -0.00001995      -0.09404015
C        3.53776000      -1.21213000      -0.44035000       0.00031439      -0.00020586      -0.00005405       0.21303023
O        4.40071000      -1.87668000       0.05434000      -0.00017858       0.00016943      -0.00002265      -0.30318089
C        0.38811000       2.59386000       1.26397000       0.00054114       0.00016818       0.00038295      -0.02151480
Cl      -0.74726000       2.50588000      -0.88494000      -0.00031694       0.00014946      -0.00024462      -0.41668181
H       -3.61775000      -1.36692000      -1.13088000       0.00005585      -0.00007337       0.00000654       0.02115215
H       -3.48580000      -3.13355000      -1.12781000      -0.00002925      -0.00005641       0.00005326       0.04555323
H       -4.22945000      -2.30644000       0.24867000      -0.00009775      -0.00001671       0.00003334       0.03922038
H       -1.41265000      -2.18588000      -0.51462000       0.00007286      -0.00001449       0.00000898       0.15615020
H       -1.09051000      -1.41235000       1.73228000      -0.00017451      -0.00001692      -0.00010950       0.03690725
H       -2.85030000      -1.21680000       1.82456000       0.00002007       0.00000588       0.00001426       0.04961238
H       -1.85948000       0.96995000       1.39700000      -0.00015135       0.00039875       0.00052483       0.05850164
H       -2.71841000       0.45532000      -0.07107000       0.00012624       0.00010440       0.00007373       0.07478942
H        1.74894000       0.80865000      -1.01067000      -0.00003322      -0.00001152       0.00001655       0.07581853
H        2.47581000       1.14431000       0.59249000       0.00009657       0.00012516       0.00016011       0.06265057
H        2.18532000      -1.27325000       1.21607000       0.00002021       0.00001618      -0.00001667       0.07757711
H        1.47000000      -1.56953000      -0.38357000       0.00003350      -0.00000953       0.00004579       0.10410580
H        3.67074000      -0.73371000      -1.42957000      -0.00001152       0.00002283       0.00001437       0.02957686
H        0.87750000       2.10561000       2.09684000       0.00008237      -0.00019131       0.00018346       0.09941070
H       -0.58145000       2.98584000       1.51011000      -0.00013330      -0.00012363      -0.00020003       0.12198920
H        1.01953000       3.25754000       0.70217000      -0.00014675      -0.00020292      -0.00011365       0.11964441
