26
Properties=species:S:1:pos:R:3:forces:R:3:charge:R:1 charge=0 spin=1 energy=-1369.853787743315 dipole="-0.9579213950901585 0.26833052441193717 0.49193611068724946" pbc="F F F"
O        3.17451000       1.08372000       0.96506000       0.00004276      -0.00022379      -0.00040611      -0.34464342
N        2.27490000       1.45423000      -0.03099000       0.00003850      -0.00025698      -0.00054499       0.10397468
O        2.70378000       1.05915000      -1.19523000      -0.00033329      -0.00010507       0.00045579      -0.44386141
N        0.93921000       0.25174000      -0.09630000      -0.00012919       0.00009294      -0.00004331      -0.15845269
C        1.28201000      -0.95030000       0.61990000       0.00015613      -0.00009244      -0.00035508      -0.01081423
C        0.29989000      -2.09074000       0.44638000      -0.00013951      -0.00008580       0.00041800       0.21488139
O        0.24500000      -3.03893000       1.17857000      -0.00000859       0.00019313      -0.00015199      -0.29157979
C       -0.59551000      -1.97656000      -0.80036000      -0.00002933       0.00002996       0.00009444       0.34634277
O       -0.18724000      -1.66030000      -1.88412000       0.00020105       0.00020018      -0.00025692      -0.37728854
O       -1.85227000      -2.29194000      -0.52883000      -0.00007871       0.00003709       0.00013867      -0.34163098
C       -0.32985000       0.80870000       0.10412000       0.00014965      -0.00026242       0.00025186       0.06273700
C       -1.19372000       0.42681000       1.13044000      -0.00034250       0.00007437      -0.00015104      -0.04795136
C       -2.43372000       1.02943000       1.24928000       0.00023256       0.00006053      -0.00014217      -0.02759640
C       -2.82179000       2.02033000       0.36451000       0.00016087      -0.00011932      -0.00004298      -0.03054797
C       -1.96101000       2.41239000      -0.64992000       0.00008633      -0.00018009       0.00021843      -0.02495828
C       -0.72615000       1.81173000      -0.78365000       0.00020135      -0.00000159      -0.00020747      -0.04151254
H        3.01563000       1.67662000       1.71225000      -0.00013054       0.00023040       0.00033036       0.30936065
H        1.55131000       0.38400000      -1.22114000       0.00025120       0.00030012       0.00008601       0.32997960
H        1.41369000      -0.76281000       1.69417000       0.00004790      -0.00002295       0.00019128       0.08680768
H        2.25058000      -1.29999000       0.23514000      -0.00000540       0.00006560       0.00000610       0.11491966
H       -2.40774000      -2.25627000      -1.32580000       0.00005875       0.00002101       0.00001857       0.34386018
H       -0.91629000      -0.34161000       1.83621000       0.00001467      -0.00010372       0.00002801       0.03585851
H       -3.09795000       0.71978000       2.04207000      -0.00006914      -0.00001703       0.00004560       0.04158271
H       -3.79072000       2.48512000       0.46448000      -0.00016034       0.00007206       0.00004630       0.04146537
H       -2.25829000       3.18511000      -1.34244000      -0.00009305       0.00014502      -0.00011770       0.04550024
H       -0.05012000       2.10402000      -1.57153000      -0.00012214      -0.00005120       0.00009034       0.06356718
