18
Properties=species:S:1:pos:R:3:forces:R:3:charge:R:1 charge=0 spin=1 energy=-891.0161207054384 dipole="0.3645845291911124 -0.6293336495489613 -0.6135978499406921" pbc="F F F"
C        2.97568000      -0.85669000      -0.74544000       0.00025483       0.00001691      -0.00011704      -0.11254492
C        1.91349000      -0.58144000       0.31303000      -0.00010612      -0.00000833       0.00001310       0.00133162
N        0.98619000       0.45579000      -0.11490000       0.00013607      -0.00071927      -0.00058372      -0.06757013
C        1.06474000       1.65587000       0.42283000       0.00002440       0.00105754       0.00048847       0.15064954
N        1.14949000       2.70505000       0.87872000      -0.00000213      -0.00019616      -0.00007754      -0.27591415
C       -0.10145000       0.13361000      -0.96486000       0.00011857       0.00017792       0.00017854       0.03994354
N       -1.31717000      -0.38259000      -0.17133000      -0.00010159      -0.00054965       0.00022203      -0.02867727
C       -2.54225000       0.12076000      -0.05721000       0.00010992      -0.00005483       0.00000838       0.21389600
O       -3.14994000       1.05399000      -0.46306000      -0.00014002      -0.00004261       0.00007971      -0.23913950
N       -1.36738000      -1.49120000       0.58209000       0.00034589       0.00029937      -0.00013783       0.11429338
N       -0.56984000      -2.29820000       0.86767000      -0.00046483       0.00013569      -0.00004690      -0.21679390
H        3.54572000       0.04627000      -0.95311000      -0.00013868      -0.00014134      -0.00002135       0.05118940
H        3.65582000      -1.62338000      -0.38560000      -0.00010784       0.00012951      -0.00000411       0.05563740
H        2.52744000      -1.20536000      -1.67327000       0.00005619       0.00003988       0.00014639       0.04326447
H        2.38803000      -0.24700000       1.23837000      -0.00002162      -0.00009171      -0.00001850       0.05751327
H        1.34109000      -1.49775000       0.53179000      -0.00005122       0.00001070       0.00002583       0.06963932
H       -0.46654000       1.00788000      -1.50561000       0.00004880      -0.00005897      -0.00004340       0.07315711
H        0.17771000      -0.66723000      -1.65391000       0.00003936      -0.00000466      -0.00011206       0.07012482
