15
Properties=species:S:1:pos:R:3:forces:R:3:charge:R:1 charge=0 spin=1 energy=-764.7580851127349 dipole="-0.30469968831983685 -0.5508844151957564 -0.17210707953098828" pbc="F F F"
O       -4.28396000       0.23517000       0.20738000      -0.00018929       0.00007376       0.00011354      -0.28922747
C       -3.15220000       0.31211000      -0.16450000       0.00027468      -0.00001403      -0.00020582       0.20960850
C       -1.96559000      -0.26683000       0.58461000       0.00085548      -0.00094433      -0.00113700      -0.03281573
N       -0.79338000      -0.34349000      -0.22979000      -0.00015021      -0.00080792       0.00058857      -0.10206921
C       -0.00134000      -1.41349000      -0.31644000      -0.00028875       0.00107612      -0.00030464       0.04230008
Cl       1.42156000       1.64478000      -0.25805000       0.00027728       0.00020909      -0.00004790      -0.33929105
C        1.20641000      -1.37679000      -0.96777000      -0.00098529       0.00027722       0.00076477      -0.06624407
Cl       2.55681000      -0.37194000       0.65846000      -0.00037342      -0.00011670      -0.00028810      -0.15377368
H       -2.87088000       0.83875000      -1.09505000      -0.00005165      -0.00005677      -0.00007480       0.04552720
H       -2.23010000      -1.25213000       0.97959000      -0.00007722      -0.00003240      -0.00000583       0.09684658
H       -1.79343000       0.39875000       1.44375000       0.00026385       0.00041889       0.00065515       0.10605145
H       -0.34634000       0.53694000      -0.51368000       0.00011470       0.00005511      -0.00014027       0.23459341
H       -0.31505000      -2.30207000       0.21698000       0.00025798      -0.00001504      -0.00008733       0.06731230
H        1.79503000      -2.27403000      -1.03829000       0.00003048      -0.00017623       0.00006150       0.08591002
H        1.43014000      -0.59144000      -1.66616000       0.00004137       0.00005322       0.00010816       0.09527169
