20
Properties=species:S:1:pos:R:3:forces:R:3:charge:R:1 charge=0 spin=1 energy=-887.6709786142219 dipole="-0.8666691117808234 0.10584026161283 -0.2739693032265554" pbc="F F F"
C       -2.08767000      -1.49074000      -0.22139000      -0.00009709       0.00000611      -0.00009583      -0.14353299
C       -1.07685000      -0.61302000       0.44964000       0.00052497      -0.00059601       0.00047844       0.28454954
O       -0.60340000      -0.76908000       1.54360000      -0.00028887      -0.00084326       0.00009479      -0.39417692
N       -0.93300000       0.78715000      -0.16506000       0.00039835       0.00031741      -0.00078955      -0.01829896
C       -2.09038000       1.35562000      -0.84833000       0.00007353       0.00036936      -0.00025061      -0.07330449
N       -0.38513000       1.74301000       0.72976000      -0.00011397       0.00043034      -0.00007402      -0.27642347
O        0.44943000      -0.97505000      -0.87172000       0.00002643      -0.00059686       0.00082942      -0.51172520
C        1.58811000      -1.11541000      -0.20287000      -0.00037866      -0.00043305      -0.00017353       0.19677700
Cl       2.53177000       0.45725000      -0.11484000      -0.00019451       0.00030470       0.00012609      -0.27851752
H       -3.08986000      -1.12748000       0.00072000       0.00016726       0.00004031      -0.00001164       0.07068899
H       -1.98163000      -2.49254000       0.18554000      -0.00001686      -0.00011551       0.00010118       0.08560212
H       -1.93070000      -1.52462000      -1.29360000       0.00003455       0.00002446       0.00004780       0.08063336
H       -2.92152000       1.49278000      -0.15419000      -0.00002305      -0.00003429       0.00005060       0.06718443
H       -2.39585000       0.71520000      -1.67022000       0.00002464      -0.00004013       0.00002027       0.07612913
H       -1.80133000       2.32966000      -1.23897000      -0.00007800      -0.00031006       0.00016396       0.08828762
H        0.63225000       1.66019000       0.72682000       0.00011019      -0.00010393       0.00012293       0.18548353
H       -0.69973000       1.53653000       1.67864000       0.00035876       0.00008848      -0.00012448       0.16874307
H       -0.08494000       0.25837000      -0.85530000      -0.00034757       0.00110481      -0.00034852       0.31020595
H        2.27966000      -1.82166000      -0.67439000       0.00001565       0.00022862      -0.00005771       0.03461296
H        1.41290000      -1.37661000       0.85692000      -0.00019573       0.00015849      -0.00010958       0.04708187
