29
Properties=species:S:1:pos:R:3:forces:R:3:charge:R:1 charge=0 spin=1 energy=-1187.4160123287102 dipole="1.5104815688626643 -0.06740010839173564 -0.46265637676457444" pbc="F F F"
C       -1.64907000       1.95728000      -0.44012000       0.00016583      -0.00008782       0.00002693      -0.10761386
C       -0.77452000       0.75484000      -0.26530000       0.00003212       0.00029207       0.00002734       0.00126758
C       -1.40643000      -0.51623000      -0.13458000      -0.00011932      -0.00013972      -0.00000241      -0.03592759
N       -2.75306000      -0.65234000       0.75391000      -0.00002926       0.00007788       0.00002321       0.11395205
O       -3.08210000       0.31626000       1.37096000       0.00001587      -0.00003773       0.00001855      -0.29799506
C       -0.58245000      -1.66403000      -0.01079000      -0.00017537      -0.00024181       0.00003337      -0.03928928
C        0.78256000      -1.55805000      -0.03402000       0.00028856      -0.00007903       0.00000137      -0.05883415
C        1.40898000      -0.30751000      -0.10212000      -0.00031308       0.00019415      -0.00004884       0.04617150
N        2.79492000      -0.16551000      -0.09220000       0.00021125      -0.00019790      -0.00011017      -0.11298059
C        3.60113000      -1.31550000      -0.43022000       0.00009166      -0.00003986      -0.00004236      -0.04156482
C        3.37965000       0.61549000       0.98242000      -0.00020401       0.00026875      -0.00004587      -0.04874311
C        0.61159000       0.85515000      -0.24921000       0.00005457      -0.00040970       0.00014008       0.05263549
N        1.24513000       2.08819000      -0.35298000       0.00002147       0.00012109      -0.00000600      -0.29114343
O       -3.72186000      -0.77839000      -0.83881000      -0.00002519      -0.00029162       0.00002696      -0.58770332
H       -1.69174000       2.52950000       0.48757000      -0.00000189       0.00003631       0.00004197       0.06606102
H       -2.66137000       1.65379000      -0.69211000      -0.00006886      -0.00004245      -0.00004717       0.07593867
H       -1.28247000       2.60930000      -1.23391000      -0.00002135       0.00003143      -0.00004044       0.03375456
H       -1.05389000      -2.62598000       0.12008000       0.00007237       0.00015055      -0.00002553       0.04908029
H        1.38211000      -2.44939000       0.05891000      -0.00009771       0.00007996       0.00002798       0.03992510
H        3.69203000      -2.03631000       0.39305000       0.00000391       0.00002003       0.00000794       0.03115345
H        4.60284000      -0.96310000      -0.68101000      -0.00005208       0.00001975       0.00003419       0.04757626
H        3.18174000      -1.81552000      -1.30108000      -0.00004318       0.00000027      -0.00005302       0.05012397
H        2.70128000       1.40704000       1.28570000       0.00007778      -0.00004146       0.00000416       0.07055543
H        3.58997000      -0.01574000       1.85532000       0.00007236      -0.00009441       0.00014814       0.03392713
H        4.31908000       1.05465000       0.64149000      -0.00004871      -0.00003815       0.00002856       0.04267728
H        0.65430000       2.83395000      -0.68645000      -0.00009211       0.00017935      -0.00002859       0.16598019
H        2.13654000       2.04367000      -0.82562000       0.00013159       0.00000261      -0.00006905       0.16682977
H       -2.29911000      -0.68495000      -0.96402000      -0.00002796       0.00002549      -0.00004762       0.27050796
H       -4.07719000      -1.66482000      -0.77253000       0.00008075       0.00024195      -0.00002368       0.26367752
