15
Properties=species:S:1:pos:R:3:forces:R:3:charge:R:1 charge=0 spin=1 energy=-964.2462435386934 dipole="-0.8077175245496213 -1.537396570315401 0.6508746974034547" pbc="F F F"
N       -2.87687000      -2.30442000       0.67793000       0.00018285      -0.00007615       0.00002996      -0.22029615
O       -2.43698000      -1.68894000      -0.53854000      -0.00020546       0.00006686       0.00007081      -0.17711443
C       -1.15164000      -1.34523000      -0.57395000       0.00087384       0.00045338      -0.00110556       0.34665469
O       -0.69534000      -0.78012000      -1.54290000      -0.00033523      -0.00052855       0.00021222      -0.40698673
C       -0.27149000      -1.57447000       0.59269000       0.00028262      -0.00122001       0.00038982      -0.11832674
C        0.99890000      -2.06620000       0.31835000      -0.00040786       0.00020821       0.00001646      -0.05311723
Br       2.53057000      -0.13341000      -0.24671000       0.00021376       0.00036741       0.00041850      -0.26840711
S        0.30008000       0.45403000       0.39522000       0.00052584      -0.00030914      -0.00023635       0.99298092
O        0.57242000       0.83241000       1.73859000       0.00012919       0.00000027      -0.00001474      -0.50740484
Br      -1.29978000       1.94274000      -0.14645000      -0.00062736       0.00099671       0.00011175      -0.26722067
H       -3.20438000      -3.23332000       0.41506000       0.00005520      -0.00009032       0.00002834       0.18860636
H       -3.68905000      -1.76027000       0.96816000      -0.00026251       0.00008027       0.00005250       0.19448970
H       -0.69080000      -1.62868000       1.58810000       0.00012768       0.00008555       0.00011642       0.09117414
H        1.63365000      -2.41615000       1.11613000      -0.00000228       0.00038168      -0.00010494       0.09979983
H        1.23423000      -2.41315000      -0.67545000      -0.00055029      -0.00041616       0.00001481       0.10516826
