25
Properties=species:S:1:pos:R:3:forces:R:3:charge:R:1 charge=0 spin=1 energy=-1428.8014413084918 dipole="1.5213249475039168 0.18174442371492258 -0.019104225799291948" pbc="F F F"
N       -4.88323000      -1.47556000       0.13399000       0.00010961       0.00001634      -0.00016098      -0.24891224
C       -3.80133000      -1.11066000       0.11738000      -0.00014907      -0.00001721       0.00025851       0.27120422
O       -2.57811000      -0.73942000       0.16188000       0.00014845      -0.00001120      -0.00021725      -0.20358479
C       -2.00530000       0.06874000      -0.83228000      -0.00003132      -0.00019266       0.00015545       0.35191368
O       -2.62465000       0.45157000      -1.77909000      -0.00010116       0.00021524      -0.00000431      -0.36324932
C       -0.61951000       0.34426000      -0.46491000       0.00034989      -0.00085399       0.00003061      -0.19558661
N       -1.25896000       2.30319000       0.17434000       0.00007237       0.00021445       0.00000624       0.17640546
O       -0.84802000       3.13354000      -0.49740000      -0.00004478      -0.00010936       0.00034004      -0.10612735
S        0.11058000      -1.22378000       0.32080000      -0.00046992       0.00013774       0.00002350       0.46521003
O       -0.07032000      -1.11531000       1.76188000       0.00036152      -0.00081095      -0.00009736      -0.47187262
C        1.82557000      -0.72270000      -0.00266000       0.00009031       0.00006036      -0.00029626      -0.03788331
C        2.34590000      -0.90391000      -1.27307000      -0.00024634      -0.00010054       0.00018155      -0.03578315
C        3.65729000      -0.53841000      -1.52268000      -0.00000743      -0.00006621      -0.00002551      -0.02371776
C        4.43269000      -0.00641000      -0.50352000       0.00005670       0.00018036       0.00037231      -0.02268912
C        3.90578000       0.15742000       0.76767000       0.00009770      -0.00008371      -0.00008559      -0.02234496
C        2.59536000      -0.20741000       1.02287000       0.00020711       0.00010731      -0.00027262      -0.02246879
O       -0.10685000       1.91861000       1.47015000       0.00036297       0.00029168      -0.00015860      -0.49492839
H       -0.02751000       0.65078000      -1.32330000       0.00014737      -0.00026779       0.00007879       0.07919786
H        1.73030000      -1.32410000      -2.05498000       0.00002532       0.00001152       0.00004692       0.04076678
H        4.07481000      -0.67022000      -2.50915000       0.00003837      -0.00003698      -0.00013721       0.04724332
H        5.45506000       0.27758000      -0.70181000      -0.00010192      -0.00003258      -0.00000801       0.04744275
H        4.51393000       0.56778000       1.55900000      -0.00002546      -0.00000027      -0.00002600       0.04990525
H        2.15842000      -0.10043000       2.00408000      -0.00010032       0.00000549       0.00029188       0.06905765
H       -0.22540000       0.95127000       0.69282000      -0.00053382       0.00141876      -0.00022844       0.32897321
H       -0.64872000       1.75691000       2.25009000      -0.00025617      -0.00007580      -0.00006765       0.32182821
