19
Properties=species:S:1:pos:R:3:forces:R:3:charge:R:1 charge=0 spin=1 energy=-817.4332029279568 dipole="0.2814269006311746 -0.04069121922682249 0.3407649509316315" pbc="F F F"
C       -2.43447000       0.34153000       0.55877000       0.00023270       0.00018385       0.00057145       0.03839030
O       -1.83175000      -0.24098000      -0.58291000       0.00007064      -0.00031948       0.00033373      -0.28693172
C       -0.61024000       0.24450000      -0.96109000       0.00044229      -0.00034391       0.00039205       0.28535110
O       -0.14939000       1.32295000      -0.52255000      -0.00027105      -0.00035659      -0.00042660      -0.40530423
C        1.25420000       1.25307000       0.82733000       0.00123779       0.00005118      -0.00064726      -0.01286601
C        2.15367000       0.49016000       0.10784000      -0.00024957      -0.00010260       0.00064719      -0.04176513
C        1.78024000      -0.72006000      -0.47083000      -0.00038630       0.00016037       0.00032424      -0.06465198
C        0.53895000      -1.30956000      -0.25339000       0.00044133       0.00090204       0.00002792       0.10188686
O       -0.01299000      -1.48014000       0.98314000      -0.00072723      -0.00011629      -0.00144338      -0.38625959
H       -3.51042000       0.29625000       0.39768000       0.00003381      -0.00006772       0.00010105       0.05787198
H       -2.11516000       1.38155000       0.66528000      -0.00016774      -0.00001127      -0.00027286       0.05738045
H       -2.17653000      -0.22401000       1.45726000      -0.00000710      -0.00027644      -0.00019045       0.05191248
H       -0.44106000      -0.04004000      -2.00411000       0.00010105      -0.00009687      -0.00010734       0.02441096
H        1.47592000       2.29831000       0.97349000       0.00000851      -0.00008234      -0.00001541       0.06628610
H        0.53627000       0.86408000       1.52793000      -0.00017355       0.00053872       0.00023446       0.06405120
H        3.03249000       0.97706000      -0.28841000      -0.00009003       0.00011054       0.00010395       0.04364880
H        2.33515000      -1.05289000      -1.33611000      -0.00006130       0.00005500      -0.00023189       0.04480008
H        0.21463000      -2.11502000      -0.90334000      -0.00035096      -0.00001640       0.00017378       0.05354682
H        0.50775000      -0.99773000       1.63709000      -0.00008328      -0.00021179       0.00042536       0.30824154
