17
Properties=species:S:1:pos:R:3:forces:R:3:charge:R:1 charge=0 spin=1 energy=-746.0455019453988 dipole="1.2006801205467696 1.3975329773501663 0.1962191494337216" pbc="F F F"
C       -1.05440000       2.28562000       0.72525000       0.00014960       0.00028798      -0.00031579      -0.11149468
C       -0.64510000       1.33648000      -0.38186000      -0.00067356      -0.00079853       0.00035043       0.02612191
S       -0.76023000      -0.43715000       0.09584000       0.00059553       0.00171852      -0.00020363      -0.08532666
Br      -3.10317000      -0.61094000      -0.09601000       0.00049302      -0.00022826      -0.00023490      -0.30795397
C        0.76988000       1.28103000      -0.74325000      -0.00025640       0.00056774       0.00030513       0.06798944
N        1.68210000       2.11952000      -0.28342000       0.00005219      -0.00043397      -0.00022080      -0.17127351
C        1.21128000      -0.50654000       0.80446000      -0.00021635      -0.00075504       0.00043753      -0.04269952
Br       2.98771000      -0.74028000      -0.04677000       0.00000852       0.00053670      -0.00079543      -0.26067945
H       -2.10492000       2.12609000       0.95836000       0.00002633      -0.00000147       0.00008052       0.08394790
H       -0.92824000       3.32010000       0.40939000      -0.00003585      -0.00015265       0.00003171       0.04791935
H       -0.47879000       2.10443000       1.63142000       0.00009268      -0.00001168      -0.00003617       0.04807723
H       -1.29154000       1.44411000      -1.25696000       0.00017531      -0.00003962      -0.00001801       0.09124662
H        1.04853000       0.67487000      -1.59363000       0.00022191      -0.00017362       0.00005928       0.10172617
H        1.46385000       2.70876000       0.50696000       0.00000759      -0.00021186       0.00001461       0.21126187
H        2.65769000       1.94502000      -0.48229000      -0.00030919      -0.00036181       0.00004842       0.22527918
H        1.03913000      -1.48227000       1.25227000      -0.00011041       0.00005202       0.00034028       0.05152920
H        1.33432000       0.22961000       1.59481000      -0.00022091       0.00000555       0.00015682       0.02432894
