12
Properties=species:S:1:pos:R:3:forces:R:3:charge:R:1 charge=0 spin=1 energy=-759.4007792613324 dipole="-0.05202501935566496 0.5140097208703533 -0.7118462867727666" pbc="F F F"
N        1.64256000       1.48016000       0.44776000      -0.00007670      -0.00020796       0.00104247      -0.35950814
C        1.67253000       0.25254000       0.04832000      -0.00001163       0.00041600      -0.00038995       0.17282212
S        2.45230000      -1.14580000       0.28161000      -0.00010320      -0.00016018       0.00016854      -0.35590858
N        0.52212000       0.38654000      -1.01822000       0.00039759      -0.00128236      -0.00033197      -0.02522263
O       -0.66504000      -0.32212000      -0.79116000      -0.00023239       0.00077825       0.00055289      -0.15255263
C       -1.56866000       0.34221000      -0.02912000       0.00006350      -0.00163974      -0.00089308       0.36920101
O       -1.42946000       1.46592000       0.36162000      -0.00006233       0.00095137       0.00059826      -0.33564404
C       -2.72112000      -0.50603000       0.20934000       0.00011467       0.00036846       0.00024822       0.10655393
N       -3.65672000      -1.12898000       0.41554000      -0.00004042      -0.00009465      -0.00014067      -0.10785440
H        2.27883000       1.78968000       1.16799000       0.00019767       0.00001039      -0.00057912       0.17701617
H        0.57928000       1.51529000      -0.54591000      -0.00042055       0.00059791      -0.00021504       0.30251318
H        0.80880000       0.18103000      -1.97834000       0.00017378       0.00026250      -0.00006055       0.20858401
