28
Properties=species:S:1:pos:R:3:forces:R:3:charge:R:1 charge=0 spin=1 energy=-1344.1565068497002 dipole="0.0023254378809474613 0.08691289609206368 0.18764057529125255" pbc="F F F"
O        3.81475000      -1.83565000      -1.18046000      -0.00007337       0.00005317       0.00033433      -0.32644113
C        3.66764000      -1.65505000      -0.00192000       0.00029842      -0.00026020      -0.00055504       0.20547459
C        2.64162000      -0.73620000       0.58092000      -0.00142873      -0.00048768       0.00033885      -0.04109706
N        1.94467000      -0.02202000      -0.45963000      -0.00004705       0.00023251       0.00059967      -0.09457849
C        0.56622000       0.23041000      -0.40797000      -0.00135615      -0.00162534       0.00077263      -0.09733096
N        1.45673000       2.52237000      -0.40193000       0.00034140       0.00046667       0.00031644       0.06774663
O        2.49276000       1.99496000      -0.30599000       0.00010019       0.00179035       0.00073805      -0.16177351
C       -0.34018000      -0.58462000       0.38433000       0.00025659       0.00144277      -0.00133423       0.20548354
O        0.01704000      -1.38281000       1.25192000       0.00094691      -0.00075878       0.00018591      -0.43884917
C       -1.78224000      -0.38624000       0.07897000       0.00018569      -0.00016048       0.00000296      -0.01531587
C       -2.63363000      -1.47724000       0.23563000      -0.00029443       0.00025333       0.00002330      -0.01935570
C       -3.98376000      -1.35638000      -0.03245000       0.00029952      -0.00002691       0.00000887      -0.02769716
C       -4.49929000      -0.13894000      -0.44494000       0.00002814      -0.00012184       0.00007451      -0.02515750
C       -3.66077000       0.95605000      -0.58177000       0.00006807       0.00012050       0.00005817      -0.02636122
C       -2.30668000       0.83903000      -0.32671000       0.00019054       0.00019905      -0.00025290      -0.03835391
O        0.54240000       2.35394000       1.17250000       0.00072323       0.00116096       0.00063989      -0.49838335
H        4.28706000      -2.17024000       0.75213000      -0.00000937       0.00004330      -0.00002709       0.03183939
H        1.91429000      -1.33044000       1.16473000       0.00040367      -0.00006336       0.00028396       0.14189709
H        3.13317000      -0.04311000       1.27451000      -0.00007401       0.00005931      -0.00019146       0.08258784
H        2.33005000      -0.24100000      -1.37569000      -0.00036781      -0.00020709      -0.00000706       0.19359828
H        0.17014000       0.55613000      -1.36040000      -0.00018462      -0.00086007      -0.00063802       0.05633624
H       -2.21614000      -2.41620000       0.56752000       0.00000508      -0.00007881      -0.00001810       0.05249444
H       -4.63474000      -2.21003000       0.08457000      -0.00009271      -0.00004406       0.00005539       0.03726072
H       -5.55461000      -0.04023000      -0.65223000      -0.00013088       0.00001536      -0.00006127       0.03637826
H       -4.06531000       1.90969000      -0.88700000       0.00001926      -0.00006502      -0.00002932       0.03811350
H       -1.67128000       1.70724000      -0.41473000      -0.00024932      -0.00003290       0.00016787       0.05028140
H        0.38699000       1.35284000       0.56792000       0.00007316      -0.00118928      -0.00114715       0.31500631
H        1.16127000       2.23460000       1.90117000       0.00036859       0.00014455      -0.00033918       0.29619681
