23
Properties=species:S:1:pos:R:3:forces:R:3:charge:R:1 charge=0 spin=1 energy=-1130.5206961557888 dipole="0.08602052884307855 -0.21731790504093199 0.39368075923166235" pbc="F F F"
O       -0.69019000       2.31006000      -0.44097000       0.00004868      -0.00007081      -0.00002735      -0.54110703
C       -1.43972000       1.82466000       0.60599000      -0.00032426       0.00017234      -0.00008080       0.10606233
C       -0.90729000       0.46595000       0.40347000      -0.00006491       0.00000059      -0.00007837       0.05095652
C       -1.52366000      -0.38506000      -0.65263000       0.00013123      -0.00017096      -0.00022796      -0.09490705
C       -2.72883000      -1.06399000      -0.00347000       0.00007205       0.00018865      -0.00005735       0.36861995
O       -2.68382000      -2.08938000       0.61356000       0.00002163      -0.00020112       0.00010003      -0.38666493
O       -3.84319000      -0.36353000      -0.18981000       0.00001416       0.00005910      -0.00007323      -0.35593729
N        1.06491000       0.67060000      -0.33121000      -0.00003141       0.00010371      -0.00004076      -0.15675769
O        2.24862000       0.44975000       0.40880000      -0.00010320       0.00006529       0.00005267      -0.19326475
C        3.10804000      -0.44707000      -0.11423000       0.00019940      -0.00000712      -0.00006265       0.35791688
C        4.28619000      -0.63450000       0.79188000      -0.00013617      -0.00019579       0.00024640      -0.15093359
O        2.90893000      -0.99394000      -1.16634000      -0.00007112      -0.00003181      -0.00004083      -0.40215925
H        0.76297000       1.68179000      -0.42801000       0.00002924      -0.00004864       0.00003665       0.26790838
H       -2.52154000       1.92755000       0.43055000       0.00019030      -0.00003470       0.00003980       0.03268499
H       -1.18302000       2.26951000       1.57892000       0.00003077       0.00004668       0.00011169       0.01676022
H       -0.37949000      -0.04069000       1.20061000       0.00009686      -0.00008507       0.00011683       0.08204416
H       -0.84745000      -1.16453000      -1.00185000      -0.00012459       0.00012642       0.00006536       0.08929527
H       -1.87024000       0.23800000      -1.47590000      -0.00000133      -0.00003259       0.00004968       0.11290281
H       -4.60258000      -0.78521000       0.24488000      -0.00011467      -0.00002299       0.00005428       0.33730164
H        1.17912000       0.19979000      -1.23390000      -0.00000298      -0.00002567      -0.00001391       0.19707767
H        5.20166000      -0.54917000       0.21205000       0.00007983       0.00003606      -0.00004880       0.09000221
H        4.26760000       0.10181000       1.58868000       0.00002848       0.00001443      -0.00005971       0.08050944
H        4.24743000      -1.63657000       1.21459000       0.00003201       0.00011399      -0.00006166       0.09168911
