19
Properties=species:S:1:pos:R:3:forces:R:3:charge:R:1 charge=0 spin=1 energy=-926.5098783273477 dipole="-0.7397731124128719 0.5947018466201155 0.08155943236979107" pbc="F F F"
O        2.35201000       1.68084000      -0.57248000      -0.00008752       0.00031680       0.00003921      -0.34980802
N        0.98969000       1.63707000      -0.19099000       0.00066638      -0.00007085       0.00016663      -0.15351270
C        0.52098000       0.41353000       0.05405000      -0.00046238      -0.00002255       0.00011517       0.22096491
Br       1.67752000      -1.07477000      -0.22149000      -0.00006340      -0.00021416       0.00008355      -0.10981534
C       -0.92076000       0.16093000      -0.03395000       0.00010402       0.00005845      -0.00000670       0.01125211
C       -1.46317000      -1.08354000       0.27526000      -0.00032087       0.00003226       0.00000368      -0.02289577
C       -2.82853000      -1.28528000       0.19864000       0.00005149       0.00031954      -0.00013551      -0.02520611
C       -3.66633000      -0.25200000      -0.18653000       0.00029924      -0.00033735       0.00014160      -0.02314182
C       -3.13260000       0.98976000      -0.49322000      -0.00014062       0.00025559      -0.00005443      -0.02424769
C       -1.76971000       1.20067000      -0.41627000       0.00015884       0.00019214      -0.00004129      -0.02874747
O        0.65724000       0.91036000       1.88220000       0.00014929      -0.00016056      -0.00023338      -0.61865494
H        2.48145000       2.56479000      -0.93810000       0.00002855       0.00008214      -0.00006011       0.30488494
H       -0.81694000      -1.89264000       0.58049000       0.00008781      -0.00010539       0.00001322       0.06057532
H       -3.23868000      -2.25408000       0.44081000      -0.00004479      -0.00013353       0.00003640       0.04435162
H       -4.73209000      -0.41344000      -0.24802000      -0.00017348      -0.00000663      -0.00000577       0.04260770
H       -3.78202000       1.79788000      -0.79491000       0.00011140      -0.00009600       0.00002399       0.04325293
H       -1.34583000       2.16262000      -0.65696000      -0.00009323      -0.00017067       0.00005328       0.05220055
H        0.89990000       1.89337000       1.05290000      -0.00028998       0.00006259      -0.00027556       0.33026367
H        0.37981000       0.70503000       2.78725000       0.00001925      -0.00000182       0.00013605       0.24567610
