35
Properties=species:S:1:pos:R:3:forces:R:3:charge:R:1 charge=0 spin=1 energy=-1419.6859243348679 dipole="0.2341888226751203 0.1852579268573448 -0.6014555433580768" pbc="F F F"
C       -2.77888000       3.25605000      -0.09219000       0.00065840       0.00048492      -0.00014268      -0.11427721
C       -2.54050000       1.77928000      -0.04775000       0.00026783      -0.00041755       0.00054881       0.02590711
C       -1.27721000       1.27063000       0.20535000      -0.00052752       0.00040450      -0.00020221      -0.01558356
C       -1.00407000      -0.11082000       0.22894000       0.00000125      -0.00030518      -0.00035431      -0.07193904
C       -2.08988000      -0.98637000       0.04757000       0.00006632      -0.00009867      -0.00012739      -0.02059901
C        0.32774000      -0.59554000       1.26037000       0.00003640      -0.00072156      -0.00047008       0.22606158
O        0.82380000       0.30155000       1.91316000       0.00044364       0.00042756       0.00054540      -0.44456191
C       -3.36269000      -0.48722000      -0.20592000      -0.00030348       0.00006678      -0.00005843       0.01985822
C       -4.44148000      -1.38336000      -0.39799000       0.00004236      -0.00000264      -0.00001026       0.11138796
N       -5.30772000      -2.11625000      -0.55925000       0.00003306       0.00004030       0.00001754      -0.22713561
C       -3.58678000       0.88944000      -0.26336000       0.00025514      -0.00011596      -0.00001284      -0.02440315
N        1.21257000      -1.11623000      -0.06864000       0.00030488      -0.00003857       0.00023065      -0.19140564
C        1.22963000      -2.55944000      -0.17791000      -0.00020591      -0.00008867       0.00011893      -0.03224838
C        2.44331000      -0.44909000      -0.21751000       0.00007474       0.00028070      -0.00016045       0.07670883
C        3.67630000      -1.09598000      -0.16461000       0.00019001      -0.00029665       0.00007404      -0.04799094
C        4.84828000      -0.37551000      -0.30278000      -0.00028159       0.00007361      -0.00002628      -0.02959955
C        4.81652000       0.99596000      -0.48195000      -0.00017187       0.00029839      -0.00003868      -0.03477475
C        3.59526000       1.64552000      -0.53092000       0.00016742      -0.00041570       0.00004961      -0.02676953
C        2.41956000       0.93111000      -0.40908000       0.00002175       0.00006700      -0.00004859      -0.03888577
H       -2.66728000       3.61822000      -1.11475000      -0.00018258       0.00011070      -0.00002015       0.05675579
H       -3.78502000       3.49769000       0.24179000      -0.00018738       0.00021683       0.00000959       0.05239669
H       -2.06072000       3.78048000       0.53280000      -0.00035350      -0.00047492      -0.00018649       0.05641619
H       -0.46706000       1.94698000       0.44152000       0.00002882       0.00005142       0.00000724       0.06453793
H       -1.95026000      -2.05690000       0.10770000      -0.00002239      -0.00005850       0.00001739       0.03662490
H       -0.03641000      -1.53337000       1.70624000      -0.00003176      -0.00000641       0.00005277       0.01690614
H       -4.58558000       1.25662000      -0.45038000      -0.00014369       0.00002327      -0.00000337       0.04810135
H        0.01323000      -0.48502000      -0.45787000      -0.00045335       0.00051821       0.00016172       0.22868815
H        0.20573000      -2.92237000      -0.26538000       0.00005487       0.00000757       0.00002929       0.03970711
H        1.77561000      -2.86625000      -1.07106000       0.00005026      -0.00002480      -0.00001588       0.04996715
H        1.68649000      -3.02676000       0.70084000       0.00006421      -0.00006542       0.00000915       0.04473881
H        3.73465000      -2.16113000      -0.00433000      -0.00004145       0.00016470      -0.00002242       0.03127529
H        5.79525000      -0.89389000      -0.25962000       0.00008961      -0.00007488       0.00001006       0.03101317
H        5.73576000       1.55309000      -0.58230000      -0.00004537      -0.00004061       0.00001465       0.03131974
H        3.55682000       2.71577000      -0.67102000      -0.00000028       0.00007714      -0.00001896       0.03300004
H        1.47365000       1.44370000      -0.46573000       0.00010115      -0.00006692       0.00002264       0.03880189
