20
Properties=species:S:1:pos:R:3:forces:R:3:charge:R:1 charge=0 spin=1 energy=-1190.294382739219 dipole="-0.7572672437480589 0.47758142402503306 -0.7113942133469268" pbc="F F F"
C       -0.42480000       0.08071000      -0.53662000       0.00019882      -0.00002228       0.00017370      -0.07757464
C       -1.77487000       0.43791000       0.63663000      -0.00009259       0.00013671      -0.00002298       0.31078900
O       -1.49991000       0.39147000       1.78612000       0.00007598      -0.00021917       0.00019890      -0.30231633
C       -3.08416000       0.14045000      -0.03871000      -0.00004369      -0.00002658      -0.00015748       0.00257984
Cl      -3.18898000      -1.61135000      -0.35280000       0.00002094       0.00008842      -0.00001567      -0.14496933
C        0.73976000      -0.70748000      -0.32037000      -0.00037549      -0.00020597      -0.00001192      -0.00090051
C        1.94806000      -0.08776000      -0.13515000       0.00036966       0.00018694       0.00005324      -0.00224424
N        3.12800000      -0.88267000       0.10234000      -0.00009537       0.00036279      -0.00008456       0.54847724
O        2.98095000      -2.08023000       0.21182000       0.00002116      -0.00037110       0.00005204      -0.38228525
O        4.18983000      -0.30281000       0.17221000       0.00002611      -0.00002855       0.00000739      -0.38066564
C        2.09059000       1.31786000      -0.24811000      -0.00013863       0.00027326      -0.00004501      -0.00449141
C        1.00341000       2.12577000      -0.40342000       0.00029446      -0.00023251       0.00004135      -0.05119037
C       -0.27833000       1.52946000      -0.42889000       0.00006734      -0.00011826      -0.00009213       0.22354119
O       -1.38177000       2.07451000      -0.08736000      -0.00018695       0.00014260      -0.00011195      -0.36548051
H       -1.09035000      -0.33705000      -1.28367000       0.00004139      -0.00005526      -0.00024067       0.11618767
H       -3.88448000       0.40982000       0.65367000      -0.00008028      -0.00000896       0.00005454       0.11375425
H       -3.19967000       0.67242000      -0.98091000       0.00000305       0.00002514       0.00017561       0.10898628
H        0.68478000      -1.78693000      -0.33391000       0.00001658       0.00012508       0.00002133       0.09997135
H        3.08697000       1.72806000      -0.16600000      -0.00013838      -0.00007244       0.00000776       0.10127480
H        1.08865000       3.20029000      -0.42253000       0.00001589       0.00002013      -0.00000350       0.08655660
