27
Properties=species:S:1:pos:R:3:forces:R:3:charge:R:1 charge=0 spin=1 energy=-1482.452679177654 dipole="-0.3337713237621688 -0.24733473555361304 0.17075419613548976" pbc="F F F"
O        1.41849000       2.25796000       1.21846000      -0.00010228       0.00024585       0.00000311      -0.44474157
N        0.21060000       1.87222000       0.78609000      -0.00007870       0.00006132       0.00023105       0.07868010
N        0.12706000       0.63317000       0.44369000       0.00017720      -0.00011801      -0.00027626       0.07530202
C       -1.15482000       0.13065000       0.14641000      -0.00036842       0.00010642      -0.00005509       0.05902823
C       -1.35119000      -1.19710000      -0.21509000       0.00045628      -0.00011215       0.00005373      -0.03254381
C       -2.62873000      -1.65679000      -0.48189000      -0.00033947       0.00012010       0.00001461      -0.02286343
C       -3.71724000      -0.80764000      -0.39110000       0.00025730       0.00003338       0.00002581      -0.02828643
C       -3.52227000       0.51497000      -0.02760000      -0.00002685       0.00000604       0.00002762      -0.02298009
C       -2.25240000       0.98477000       0.24254000       0.00030049      -0.00046621      -0.00007080      -0.03786738
C        1.33148000      -0.14166000       0.18926000       0.00011623      -0.00022280       0.00008532      -0.02120326
C        1.58019000      -0.39416000      -1.30215000       0.00004304       0.00006879       0.00032097       0.37074312
O        0.73408000      -0.51762000      -2.13747000      -0.00011430      -0.00001106      -0.00020529      -0.37347264
O        2.88426000      -0.45537000      -1.53476000      -0.00014209       0.00008059       0.00041116      -0.35036799
C        1.39768000      -1.43289000       0.99267000       0.00015625       0.00006451      -0.00029461       0.36544712
O        1.96046000      -2.42976000       0.63812000      -0.00007022       0.00008680       0.00004182      -0.39307087
O        0.78080000      -1.30044000       2.16489000      -0.00013925       0.00032409      -0.00011654      -0.35850433
O        0.55041000       3.00946000      -0.70058000       0.00015880      -0.00008170       0.00011323      -0.60956257
H       -0.52425000      -1.88131000      -0.31034000      -0.00020239       0.00015052       0.00005094       0.04509645
H       -2.76845000      -2.68839000      -0.76681000       0.00003552      -0.00011596      -0.00002951       0.04680643
H       -4.71012000      -1.17297000      -0.60415000      -0.00009136      -0.00004069      -0.00002740       0.04455701
H       -4.36434000       1.18650000       0.04485000      -0.00001043       0.00001754      -0.00000939       0.04691141
H       -2.09485000       2.01153000       0.52694000       0.00003417       0.00027629       0.00007946       0.06486080
H        2.15370000       0.50020000       0.56018000      -0.00010444      -0.00017076      -0.00008196       0.14675798
H        3.06583000      -0.64872000      -2.46886000       0.00011744      -0.00009760      -0.00040174       0.34533307
H        0.85731000      -2.11185000       2.69148000       0.00003787      -0.00032375       0.00021504       0.34271684
H        1.38875000       3.03282000       0.32312000      -0.00001959       0.00004812      -0.00011008       0.39669137
H       -0.09129000       3.71958000      -0.71238000      -0.00008080       0.00007032       0.00000479       0.26653242
