21
Properties=species:S:1:pos:R:3:forces:R:3:charge:R:1 charge=0 spin=1 energy=-960.1816935691792 dipole="1.0964514156228315 1.0289529295213655 -0.04102521939139666" pbc="F F F"
C        4.47759000      -1.05470000       0.23156000      -0.00016679      -0.00003812       0.00006351       0.03724944
O        3.22477000      -0.65875000      -0.26459000      -0.00000841      -0.00005211       0.00009505      -0.29939585
C        2.60578000       0.32301000       0.52323000       0.00006583       0.00008276      -0.00003463       0.08277803
C        1.24250000       0.65670000       0.00771000       0.00006797      -0.00010957       0.00006108       0.03522186
C        0.61955000       1.84845000       0.41038000      -0.00063056       0.00008743       0.00004361      -0.03088712
C       -0.64017000       2.15983000      -0.00984000       0.00063833       0.00022016       0.00011414      -0.02117585
C       -1.41990000       1.20343000      -0.79130000       0.00000750       0.00030505      -0.00087344       0.05298500
Cl      -2.58092000       0.51531000       0.55192000      -0.00094711      -0.00062406       0.00039721      -0.05426558
C       -0.67923000       0.05123000      -1.31425000       0.00036265       0.00081267      -0.00083852      -0.00544721
C        0.58392000      -0.20857000      -0.88631000       0.00020890      -0.00009562       0.00006835      -0.01374670
Cl      -2.39184000      -2.15467000       0.23057000       0.00028604       0.00057718      -0.00040967      -0.40291669
H        4.85905000      -1.80460000      -0.45768000       0.00000514      -0.00000847      -0.00000970       0.06629127
H        4.39007000      -1.49103000       1.23411000       0.00002565       0.00003667      -0.00005746       0.03396616
H        5.17546000      -0.20913000       0.27410000       0.00004489       0.00005198      -0.00000584       0.03097866
H        3.22675000       1.23566000       0.56114000      -0.00001098      -0.00014437      -0.00016029       0.04116078
H        2.50335000      -0.03594000       1.56538000       0.00002582       0.00014708       0.00008384       0.05379272
H        1.15963000       2.53286000       1.04868000       0.00004925       0.00004909       0.00011148       0.05432556
H       -1.12199000       3.07409000       0.29660000       0.00007045       0.00002324      -0.00011755       0.06902722
H       -1.18108000      -0.59884000      -2.01107000      -0.00071226      -0.00100165       0.00046025       0.08729782
H        1.11736000      -1.07934000      -1.23186000       0.00002233      -0.00001287       0.00000189       0.08856748
H       -2.13022000       1.63910000      -1.49206000       0.00059536      -0.00030647       0.00100667       0.09419300
