10
Properties=species:S:1:pos:R:3:forces:R:3:charge:R:1 charge=0 spin=1 energy=-539.8993442584394 dipole="-0.10449156418581146 0.6096793697911213 -0.4293381381502315" pbc="F F F"
N       -2.74607000      -1.09490000       0.27671000      -0.00027506      -0.00008785      -0.00007924      -0.14727893
C       -1.77297000      -0.58615000      -0.07012000      -0.00090376      -0.00059607       0.00074796       0.13573930
C       -0.64584000       0.01380000      -0.60996000       0.00164317       0.00149694       0.00041045       0.04579101
C       -0.40072000       1.45909000      -0.46182000       0.00103959       0.00010380      -0.00003650       0.08006336
O        0.06638000       1.16250000       0.83480000      -0.00040443      -0.00039874      -0.00069992      -0.32110420
Cl       2.08339000      -0.64609000      -0.00079000      -0.00064103       0.00011560      -0.00009331      -0.52770415
H        0.15086000      -0.62062000      -0.98643000       0.00052710      -0.00078831      -0.00024134       0.17224385
H        0.35824000       1.86682000      -1.12929000      -0.00027691       0.00024421      -0.00016577       0.08725134
H       -1.28126000       2.09796000      -0.39449000      -0.00003211      -0.00024482       0.00045681       0.09975826
H        0.96312000       0.68325000       0.75961000      -0.00067655       0.00015526      -0.00029914       0.37524017
