30
Properties=species:S:1:pos:R:3:forces:R:3:charge:R:1 charge=0 spin=1 energy=-1402.092328482006 dipole="-0.41045886732890147 -0.18531679423022587 -0.3829000798009478" pbc="F F F"
C       -3.78949000      -1.67704000       0.33834000      -0.00046340      -0.00005112       0.00022263       0.03231570
O       -3.08400000      -0.85077000      -0.55723000      -0.00005936       0.00013444       0.00008320      -0.32159453
C       -3.03587000       0.51374000      -0.16709000       0.00022300       0.00028886       0.00030112       0.14063085
N       -2.05032000       1.17869000      -0.95763000      -0.00000852      -0.00012372      -0.00095355      -0.21083898
C       -0.70622000       0.84963000      -0.66542000      -0.00086050      -0.00153220       0.00123329      -0.07873705
N        0.04199000       2.60994000      -0.14287000       0.00023752       0.00004489      -0.00003428       0.11787307
O        1.13597000       2.77970000      -0.51117000       0.00012238       0.00013899      -0.00037538      -0.21217023
S       -0.50765000      -1.00689000      -0.10886000       0.00018492       0.00063584      -0.00052052       0.42497610
O       -0.91083000      -1.10225000       1.29196000       0.00039576       0.00022427       0.00046487      -0.48367118
C        1.30349000      -0.87416000      -0.07969000       0.00017663      -0.00028524      -0.00022663      -0.03572626
C        2.00730000      -1.06323000      -1.25696000      -0.00004244      -0.00006227       0.00000805      -0.03694286
C        3.38715000      -0.96145000      -1.24589000       0.00025371       0.00000105      -0.00031207      -0.02567294
C        4.04911000      -0.67844000      -0.06119000       0.00027968       0.00005132       0.00010539      -0.02529975
C        3.33729000      -0.50496000       1.11452000       0.00010065       0.00002967      -0.00017434      -0.02248966
C        1.95743000      -0.60779000       1.10787000      -0.00009042       0.00003251       0.00006410      -0.01945841
O        0.04195000       1.91849000       1.52443000      -0.00127850       0.00025008       0.00067338      -0.53256138
H       -3.77717000      -2.67586000      -0.09169000      -0.00003806       0.00001092       0.00000719       0.06270991
H       -3.29745000      -1.69111000       1.31539000      -0.00035201      -0.00004951      -0.00016435       0.05862880
H       -4.82454000      -1.33621000       0.45135000       0.00016785      -0.00010351      -0.00004446       0.03189929
H       -4.01616000       0.98683000      -0.32767000      -0.00000903      -0.00017688      -0.00028111       0.03219179
H       -2.76791000       0.58834000       0.89631000       0.00015351       0.00010343       0.00037296       0.04920497
H       -2.28632000       1.12803000      -1.94100000      -0.00045467       0.00036222       0.00027044       0.16398621
H       -0.08173000       0.84087000      -1.55661000       0.00090207       0.00097305       0.00025910       0.05885984
H        1.47680000      -1.28536000      -2.17205000      -0.00004269      -0.00007115      -0.00003834       0.03140606
H        3.94611000      -1.10072000      -2.15924000      -0.00012658       0.00004154       0.00021458       0.03822991
H        5.12567000      -0.59418000      -0.05620000      -0.00022675      -0.00003276       0.00000495       0.03932254
H        3.85591000      -0.28493000       2.03524000       0.00006087       0.00001687       0.00012579       0.04362358
H        1.37582000      -0.47546000       2.00694000      -0.00004003       0.00000126       0.00012347       0.07042497
H       -0.41268000       1.14006000       0.60067000       0.00015624       0.00027549      -0.00017179       0.31657856
H       -0.66170000       2.41038000       1.95302000       0.00067816      -0.00112832      -0.00123769       0.29230111
