24
Properties=species:S:1:pos:R:3:forces:R:3:charge:R:1 charge=0 spin=1 energy=-1269.343632645868 dipole="0.23241484323672867 0.11691135103050103 0.027129427561506797" pbc="F F F"
C        2.78659861      -1.68247267      -0.13077020      -0.00011132       0.00011505       0.00001139      -0.05650405
N        2.46415302      -0.82604327       0.95254641      -0.00036619       0.00019156      -0.00014392      -0.04408186
C        1.53081253       0.11019839       0.83030788       0.00022452      -0.00013743       0.00001643      -0.11151129
S        0.58426791       0.26528209      -0.73669694       0.00003635      -0.00044863      -0.00075015       1.00944045
O       -0.16513306      -0.94400029      -0.95744445       0.00060373       0.00084454       0.00019937      -0.55662414
O        1.41006375       0.73312676      -1.81575973      -0.00056214      -0.00034287       0.00070604      -0.53761489
C       -0.65273075       1.60680914      -0.35465001      -0.00003232       0.00014629      -0.00005608      -0.18775013
C       -1.63916469       0.88220569       0.50238828       0.00001992      -0.00006529       0.00042432       0.36448845
O       -1.42370034       0.51626039       1.62299338      -0.00013218       0.00017634      -0.00063633      -0.38311499
O       -2.73953178       0.63510477      -0.21322487       0.00013173      -0.00013733       0.00029401      -0.15152064
O       -3.67109183      -0.22828965       0.42231850       0.00016986      -0.00005662      -0.00016944      -0.15737937
C       -3.48964086      -1.55205634      -0.02748614      -0.00007544       0.00011586      -0.00003294       0.02554974
O        3.73485802       0.57985983       0.87329899       0.00001086      -0.00006982      -0.00006583      -0.56872027
H        1.99682604      -2.43873547      -0.17379599       0.00004098       0.00000335      -0.00003667       0.09697332
H        2.81391687      -1.17410790      -1.09827764       0.00000444      -0.00007843       0.00012592       0.07430283
H        3.73563042      -2.17269108       0.07918851      -0.00000820       0.00002251      -0.00001064       0.08446769
H        0.90439612       0.28864273       1.69546986       0.00008726      -0.00005231      -0.00012198       0.11836225
H       -1.07705493       1.94766105      -1.29282476       0.00006084      -0.00006352       0.00016530       0.10796221
H       -0.12803184       2.39451832       0.17370640      -0.00010102      -0.00017725      -0.00015169       0.09414410
H       -3.75325820      -1.65172621      -1.08383379       0.00003969       0.00002098       0.00016421       0.06324796
H       -2.46209614      -1.89147191       0.12924198      -0.00004210       0.00002631       0.00002751       0.07196474
H       -4.17605811      -2.12704914       0.59101993       0.00005224      -0.00001182      -0.00007400       0.09155332
H        2.48577416       1.04519382       0.81384651      -0.00006219      -0.00005233       0.00007855       0.29398910
H        4.68309506       0.79173090       0.91175788       0.00001069       0.00003084       0.00003662       0.25837547
