16
Properties=species:S:1:pos:R:3:forces:R:3:charge:R:1 charge=0 spin=1 energy=-759.7487053519136 dipole="-0.5005588314982923 -0.1520809025236529 0.46675261132269596" pbc="F F F"
C       -1.67762000       1.20416000       0.97756000      -0.00038717      -0.00084258      -0.00022348      -0.10895109
C       -1.00841000       1.28078000      -0.26354000      -0.00010880       0.00007297      -0.00013577      -0.01902091
S       -1.95174000      -1.28103000      -0.20567000       0.00057514       0.00151065       0.00071928      -0.43009292
C        0.37616000       0.86294000      -0.46823000       0.00056576       0.00007228      -0.00036137       0.36150672
O        0.95792000       0.89107000      -1.52101000      -0.00004830      -0.00010853       0.00033245      -0.37192132
O        0.91462000       0.43476000       0.70224000      -0.00037886      -0.00035057       0.00041745      -0.16534492
O        2.26727000       0.02902000       0.61469000       0.00011189       0.00049579      -0.00076708      -0.16602660
C        2.37708000      -1.29565000       0.14935000      -0.00021130      -0.00016241      -0.00002096       0.03351418
H       -1.02692000       1.21747000       1.84651000       0.00007716      -0.00019460       0.00002195       0.11004894
H       -2.11706000       0.09896000       1.01083000       0.00013063      -0.00003684      -0.00020177       0.20350354
H       -2.55898000       1.83140000       1.06271000      -0.00010246       0.00013317       0.00004348       0.09708348
H       -1.51350000       1.61409000      -1.15733000      -0.00000222      -0.00010319       0.00001956       0.10032022
H       -2.38835000      -2.54277000      -0.32183000      -0.00033662      -0.00049791      -0.00012028       0.15107909
H        3.44681000      -1.49047000       0.19116000       0.00013811      -0.00012038       0.00016369       0.08327827
H        2.02239000      -1.39226000      -0.88047000       0.00008228       0.00016035       0.00016245       0.06450261
H        1.84164000      -1.99225000       0.80100000      -0.00010524      -0.00002820      -0.00004958       0.05652069
