31
Properties=species:S:1:pos:R:3:forces:R:3:charge:R:1 charge=0 spin=1 energy=-1381.4023600045275 dipole="-0.40178847439493176 0.2304126867696536 0.20527703769760675" pbc="F F F"
C       -0.49764000       3.32199000       0.96385000      -0.00012734      -0.00023824      -0.00009201      -0.10147145
C        0.13165000       3.19240000      -0.42581000       0.00003931      -0.00010306       0.00011604      -0.08853305
C        0.05629000       1.74948000      -0.87395000      -0.00037415      -0.00019662      -0.00006093       0.29217737
O       -0.69317000       1.34099000      -1.71995000       0.00030554       0.00008750       0.00025604      -0.36671061
N        0.92738000       0.89302000      -0.18229000       0.00009108       0.00035703      -0.00001815      -0.26834374
C        0.38532000      -0.41421000       0.71535000      -0.00017721       0.00003730      -0.00048247       0.31547109
O        0.85350000      -0.41952000       1.82199000       0.00018869      -0.00004452       0.00041899      -0.42572786
C       -0.99023000      -0.76401000       0.31081000      -0.00015556      -0.00002308      -0.00019667      -0.00639073
C       -1.98684000      -0.54462000       1.25807000       0.00000401      -0.00001092       0.00001916      -0.02378661
C       -3.30411000      -0.82930000       0.95223000      -0.00015699       0.00003538       0.00009166      -0.02665708
C       -3.63089000      -1.33444000      -0.29541000       0.00009732       0.00001078       0.00004862      -0.02209986
C       -2.63796000      -1.56008000      -1.23402000       0.00017645       0.00001705       0.00002247      -0.02147105
C       -1.31797000      -1.27310000      -0.93879000      -0.00015829       0.00014544       0.00037702      -0.01202177
O        1.43540000      -1.36033000      -0.39034000       0.00012333      -0.00007620       0.00001247      -0.42487496
C        2.57243000      -1.81563000       0.27768000      -0.00000969      -0.00003306      -0.00009058       0.09099331
C        3.75497000      -1.07391000      -0.10623000       0.00020083       0.00020351      -0.00015984       0.10244299
N        4.63934000      -0.42993000      -0.43882000      -0.00021888      -0.00017457       0.00010143      -0.22261842
H        0.02089000       2.70279000       1.69335000      -0.00001891       0.00001906       0.00002536       0.04608827
H       -0.45354000       4.35551000       1.29723000       0.00000511       0.00017385       0.00006584       0.05345337
H       -1.53956000       3.01160000       0.93171000       0.00015887       0.00006390      -0.00001354       0.04794774
H       -0.41642000       3.80560000      -1.14115000       0.00004639       0.00000379      -0.00003414       0.06911607
H        1.17239000       3.52279000      -0.40111000      -0.00008272      -0.00001516      -0.00008604       0.05411574
H        1.58239000       1.38630000       0.42314000      -0.00008909      -0.00009767      -0.00003192       0.19804325
H       -1.71489000      -0.15473000       2.22780000       0.00001039       0.00002722       0.00004076       0.04762903
H       -4.07535000      -0.65562000       1.68789000       0.00016919      -0.00003788      -0.00015291       0.04098085
H       -4.66102000      -1.55345000      -0.53494000      -0.00011317      -0.00001289      -0.00000320       0.04138752
H       -2.89337000      -1.95477000      -2.20564000      -0.00006315      -0.00002672      -0.00007581       0.04557936
H       -0.54459000      -1.45032000      -1.66687000       0.00018782      -0.00002400      -0.00017010       0.06628933
H        1.44797000      -0.11953000      -0.72146000       0.00001345      -0.00012022      -0.00009806       0.33976922
H        2.71540000      -2.88402000       0.07424000      -0.00004956       0.00007564       0.00005854       0.06785582
H        2.41676000      -1.67040000       1.36720000      -0.00002307      -0.00002264       0.00011198       0.09136688
