18
Properties=species:S:1:pos:R:3:forces:R:3:charge:R:1 charge=0 spin=1 energy=-1110.0211898315285 dipole="-1.220849146475152 -0.8851021457087827 -0.07646388488636593" pbc="F F F"
N        4.39240000       0.77077000       0.10323000       0.00029504       0.00014969      -0.00003308      -0.13733819
C        3.35977000       0.36951000      -0.17600000      -0.00034741      -0.00021620       0.00016133       0.11067506
C        2.03912000      -0.09437000      -0.57239000       0.00068805      -0.00017625      -0.00019782       0.39140066
O        1.40579000       0.37394000      -1.48300000      -0.00041724       0.00028710      -0.00006932      -0.38879817
O        1.69590000      -1.20000000       0.11884000      -0.00058288       0.00012731       0.00051642      -0.22978230
C        0.34623000      -1.50827000       0.07686000       0.00039626      -0.00012026      -0.00028904       0.04250794
S       -0.46947000      -0.03960000       1.02607000       0.00056945       0.00046929       0.00059604       0.47759805
O        0.66201000       0.88295000       1.13251000      -0.00033073      -0.00037030      -0.00012106      -0.48218773
C       -1.43651000       0.58282000      -0.41993000       0.00071672      -0.00086006      -0.00023837      -0.05984821
N       -2.49311000      -0.13138000      -0.83632000       0.00013662      -0.00117261      -0.00094986       0.02589750
O       -2.78840000      -1.19972000      -0.05361000       0.00014837      -0.00001416       0.00012244      -0.30323192
O       -3.55900000       1.31328000      -0.07620000       0.00060597       0.00110947       0.00052539      -0.60079111
H       -0.05255000      -1.55418000      -0.93814000      -0.00018997      -0.00000860      -0.00018323       0.07571502
H        0.18275000      -2.42729000       0.63247000       0.00003132       0.00005683       0.00003689       0.07883444
H       -0.84604000       1.04352000      -1.20480000      -0.00015426       0.00022992       0.00001334       0.13120280
H       -3.61203000      -1.57517000      -0.40543000      -0.00028898      -0.00006253      -0.00007832       0.33831963
H       -2.19219000       1.51929000       0.03467000      -0.00163595       0.00082572       0.00009810       0.28623873
H       -4.44551000       1.68996000       0.03607000       0.00035962      -0.00025434       0.00009016       0.24358782
