23
Properties=species:S:1:pos:R:3:forces:R:3:charge:R:1 charge=0 spin=1 energy=-1052.9085493869336 dipole="-0.18931336398374607 0.3624569402893468 0.19638707588586862" pbc="F F F"
O       -0.08207000       2.25141000      -0.64657000      -0.00019608      -0.00034925       0.00044555      -0.55173889
C       -1.20244000       2.47470000       0.10762000      -0.00025913       0.00018830      -0.00004060       0.11075815
C       -1.25447000       1.05076000       0.48374000      -0.00024727       0.00079623       0.00012792       0.04455790
C       -1.78003000       0.10198000      -0.53148000       0.00019138      -0.00009068      -0.00026007      -0.06972090
N       -1.59606000      -1.31870000      -0.15407000      -0.00031438      -0.00006197       0.00022487       0.55730153
O       -1.60058000      -1.59129000       1.01928000       0.00013440      -0.00027185      -0.00006376      -0.37088319
O       -1.48390000      -2.10716000      -1.05824000       0.00014142       0.00003022      -0.00000402      -0.36776580
N        0.74212000       0.41112000       0.80744000       0.00005778      -0.00025662      -0.00011582      -0.28501038
C        1.37865000      -0.80687000       0.34006000       0.00013033       0.00015114      -0.00014360       0.14433541
O        2.77585000      -0.73597000       0.39300000      -0.00013215      -0.00029619       0.00018262      -0.31336611
C        3.36478000      -0.00722000      -0.66405000       0.00006880       0.00008998      -0.00024454       0.03337678
H        0.96822000       1.23433000       0.21915000       0.00022529      -0.00024771       0.00023579       0.24648301
H       -1.04417000       3.15246000       0.96025000       0.00010481       0.00000757      -0.00006610       0.01768826
H       -2.06039000       2.83601000      -0.48348000      -0.00013220       0.00006953       0.00003066       0.02175985
H       -1.31990000       0.72774000       1.51403000       0.00055284       0.00011875      -0.00035035       0.09343415
H       -1.32994000       0.27013000      -1.51252000      -0.00005979      -0.00024184      -0.00009025       0.13766317
H       -2.86537000       0.25084000      -0.62561000      -0.00014508       0.00010401      -0.00003569       0.11967045
H        0.97357000       0.58229000       1.78107000      -0.00014272       0.00020907      -0.00002761       0.17786944
H        1.04544000      -1.00184000      -0.68970000      -0.00003937      -0.00001721       0.00006443       0.03993330
H        1.09468000      -1.64035000       0.99087000      -0.00010364      -0.00009232       0.00005555       0.06516318
H        4.43855000      -0.04714000      -0.49648000       0.00014702       0.00013326      -0.00003992       0.06602790
H        3.12586000      -0.46477000      -1.63037000       0.00007186       0.00001049      -0.00002146       0.03876563
H        3.03765000       1.03743000      -0.67598000      -0.00005412       0.00001709       0.00013639       0.04369716
