35
Properties=species:S:1:pos:R:3:forces:R:3:charge:R:1 charge=0 spin=1 energy=-1361.7377785328026 dipole="0.7879047570259256 -0.21846875731876494 0.014496241157547144" pbc="F F F"
C       -0.66585000       3.70320000      -0.26229000      -0.00007238      -0.00015368       0.00013388      -0.02609895
N       -0.94938000       2.30916000      -0.52919000      -0.00001633      -0.00010942      -0.00008997      -0.25724536
C       -1.25581000       1.56065000       0.67581000      -0.00051147       0.00007603      -0.00027971      -0.00298902
C       -1.71646000       0.16842000       0.27503000      -0.00027965      -0.00004366       0.00058930       0.30874277
O       -2.63410000      -0.04823000      -0.47743000       0.00042591       0.00016338      -0.00043545      -0.45575266
N       -0.49824000      -0.85647000       0.25785000       0.00025850       0.00020651      -0.00001701      -0.09276147
C        0.83681000      -0.34153000       0.17057000       0.00012186      -0.00037645       0.00010511       0.05645271
C        1.25813000       0.43581000      -0.90171000      -0.00004691      -0.00037142      -0.00016606      -0.03491172
C        2.56669000       0.88367000      -0.94997000      -0.00018277      -0.00008243       0.00003089      -0.02700524
C        3.45822000       0.55866000       0.05830000       0.00014635       0.00014448      -0.00016516      -0.03063653
C        3.03739000      -0.21153000       1.12952000       0.00022538       0.00013624       0.00006299      -0.02957651
C        1.73069000      -0.66169000       1.18710000      -0.00025134       0.00013585       0.00023046      -0.04452302
N       -0.79290000      -2.00758000      -0.52537000      -0.00019423       0.00049423      -0.00046486      -0.09214973
C       -0.06232000      -3.15971000      -0.04515000       0.00002988      -0.00007835       0.00022488      -0.04389341
C       -0.65334000      -1.81759000      -1.95300000      -0.00010055       0.00004300       0.00000766      -0.04334980
O       -2.02578000      -0.49269000       1.90807000      -0.00024177      -0.00018849       0.00014867      -0.58345947
H        0.23612000       3.76047000       0.34861000       0.00003606       0.00002377      -0.00000596       0.03751492
H       -0.48057000       4.21298000      -1.20596000      -0.00001401       0.00008332      -0.00013012       0.04097368
H       -1.47657000       4.22320000       0.26915000       0.00003575       0.00002518       0.00002703       0.01576364
H       -1.74445000       2.22839000      -1.15909000       0.00014516      -0.00001928       0.00002191       0.15025830
H       -0.36997000       1.51815000       1.31271000       0.00000535       0.00010643      -0.00000840       0.04202167
H       -2.07774000       2.00780000       1.25818000       0.00002488      -0.00004950       0.00012177       0.04197453
H        0.55635000       0.71847000      -1.66771000       0.00006395      -0.00010523       0.00003522       0.06412902
H        2.88977000       1.49258000      -1.78093000       0.00002537       0.00002904       0.00005880       0.03917746
H        4.47828000       0.91003000       0.01405000      -0.00006435      -0.00004444       0.00003391       0.03600272
H        3.72608000      -0.46086000       1.92306000      -0.00002992      -0.00001947      -0.00004452       0.03633821
H        1.39576000      -1.25469000       2.02633000       0.00021829      -0.00007885      -0.00016965       0.03772435
H        1.02183000      -3.09235000      -0.22141000      -0.00002760       0.00005584       0.00009091       0.02172587
H       -0.44321000      -4.03859000      -0.56161000       0.00014506       0.00005858      -0.00009186       0.05614828
H       -0.24030000      -3.28376000       1.02286000      -0.00009482      -0.00009139      -0.00012260       0.04455559
H        0.39187000      -1.71746000      -2.27925000      -0.00005327      -0.00002789       0.00004454       0.01625523
H       -1.09370000      -2.68292000      -2.44520000      -0.00004706       0.00003964       0.00004142       0.05125188
H       -1.22208000      -0.93645000      -2.23793000       0.00000238      -0.00004372       0.00005543       0.06968437
H       -0.99104000      -1.04603000       1.39131000       0.00022745      -0.00004247       0.00017690       0.30883590
H       -2.79863000      -1.05752000       1.81945000       0.00009084       0.00010462      -0.00005035       0.28882177
