20
Properties=species:S:1:pos:R:3:forces:R:3:charge:R:1 charge=0 spin=1 energy=-915.0616983304704 dipole="1.1884727241097637 0.7103968383489102 -0.7726763175682556" pbc="F F F"
C       -0.95698000       0.39021000      -0.57577000       0.00012525       0.00065213       0.00127610      -0.03355132
C       -0.06213000       1.01143000       0.38352000      -0.00006251       0.00023461      -0.00063386      -0.03803711
C        0.51958000       2.36246000       0.02827000       0.00005243      -0.00000201      -0.00009427      -0.11942584
C        0.86017000      -0.33064000       0.30970000      -0.00046532      -0.00004140      -0.00074406       0.19082501
O        0.90711000      -1.01157000       1.35157000       0.00012434       0.00007369      -0.00022111      -0.43223248
C        2.21564000       0.03467000      -0.45672000       0.00008642      -0.00103845      -0.00015309       0.01376110
N        3.06941000      -1.07658000      -0.57079000      -0.00027994       0.00046240       0.00011333      -0.27110438
N       -2.10222000      -0.32382000      -0.17839000       0.00022872       0.00002668      -0.00060635       0.53911844
O       -2.35469000      -0.41598000       1.00689000       0.00000998      -0.00000769       0.00017497      -0.38373323
O       -2.78353000      -0.79352000      -1.07869000       0.00024233       0.00017660       0.00027615      -0.40817792
H       -0.88985000       0.57682000      -1.63834000       0.00032046      -0.00061163       0.00016244       0.09185117
H        0.30995000      -0.91158000      -0.58365000       0.00028250      -0.00012040       0.00002841       0.05897096
H       -0.47848000       1.00860000       1.39236000      -0.00049349       0.00004555       0.00010436       0.10642614
H        1.34529000       2.61100000       0.68908000      -0.00013809      -0.00002777       0.00000028       0.06038611
H        0.86076000       2.40676000      -1.00244000      -0.00006093      -0.00006842       0.00027980       0.04691857
H       -0.25072000       3.11962000       0.16256000      -0.00001267      -0.00013149      -0.00003786       0.06640418
H        2.69298000       0.78505000       0.17493000       0.00016233       0.00015412       0.00016774       0.08897348
H        1.98737000       0.44492000      -1.43871000      -0.00001473       0.00012734      -0.00012241       0.06399617
H        2.74538000      -1.79115000      -1.20961000       0.00000444       0.00014319       0.00001952       0.17164404
H        3.29806000      -1.48744000       0.32578000      -0.00011151      -0.00004704       0.00000991       0.18698692
