24
Properties=species:S:1:pos:R:3:forces:R:3:charge:R:1 charge=0 spin=1 energy=-1388.1287552906258 dipole="-0.11991401126825309 -0.7220463799411309 0.048786579649864874" pbc="F F F"
O        3.79902000      -0.70954000       0.38895000      -0.00146697      -0.00041047       0.00019525      -0.11294609
N        2.73331000      -0.69527000       0.80065000       0.00091008       0.00040284      -0.00012779       0.21894278
C        1.25814000      -0.07469000      -0.71726000       0.00022382      -0.00048586       0.00002874      -0.17424436
C        1.17484000       1.24357000       0.01328000      -0.00049657       0.00072318      -0.00105615       0.38132541
O        1.87804000       1.64499000       0.88608000       0.00027925      -0.00019495       0.00045791      -0.34687210
O        0.17169000       1.86450000      -0.59699000       0.00053244      -0.00081081       0.00012097      -0.12358228
F       -0.19148000       3.17669000      -0.08861000      -0.00030548       0.00055153       0.00013940      -0.08646578
C       -0.06590000      -0.55449000      -1.29914000      -0.00011113      -0.00027741       0.00044795       0.23060299
O       -0.10807000      -0.96625000      -2.43527000       0.00016295       0.00020050      -0.00040423      -0.35150611
C       -1.22659000      -0.51752000      -0.38925000      -0.00048879       0.00009680      -0.00030689      -0.01188438
C       -2.50080000      -0.50883000      -0.95745000       0.00045266       0.00000956       0.00024622      -0.01291305
C       -3.62129000      -0.46876000      -0.15135000       0.00000479      -0.00001224       0.00021376      -0.02283854
C       -3.48002000      -0.44747000       1.22721000       0.00000542      -0.00001185       0.00003131      -0.01709466
C       -2.21649000      -0.47309000       1.79785000      -0.00050157      -0.00002447       0.00013707      -0.02129690
C       -1.08894000      -0.50309000       0.99908000       0.00056029       0.00002368       0.00005498      -0.02994154
O        1.90443000      -2.25279000       0.52860000       0.00061731       0.00043237       0.00009310      -0.50845198
H        1.99102000       0.00714000      -1.52356000       0.00012401       0.00019867       0.00006663       0.09299989
H       -2.58726000      -0.52456000      -2.03333000      -0.00006086      -0.00000636      -0.00018979       0.06263336
H       -4.60470000      -0.45276000      -0.59618000      -0.00016497       0.00000079      -0.00007151       0.04740301
H       -4.35488000      -0.41222000       1.85905000       0.00007563       0.00000741      -0.00002055       0.04687523
H       -2.10918000      -0.46558000       2.87188000       0.00001721       0.00001059      -0.00000546       0.04809126
H       -0.11284000      -0.53565000       1.46029000      -0.00019724      -0.00003417      -0.00000794       0.05673907
H        1.38182000      -1.32686000      -0.11883000      -0.00000653      -0.00014511       0.00023972       0.32814249
H        2.42761000      -2.83387000      -0.03520000      -0.00016574      -0.00024421      -0.00028271       0.30628229
