23
Properties=species:S:1:pos:R:3:forces:R:3:charge:R:1 charge=0 spin=1 energy=-1001.6100717142366 dipole="0.41739786271458995 -1.100984838387006 0.19050997181850748" pbc="F F F"
C        1.75488269      -0.92178651      -0.39019140      -0.00020859      -0.00025860      -0.00041807       0.01009120
C        2.69104815      -0.77300638       0.76707881       0.00001985      -0.00036904       0.00029886      -0.12057654
C        0.90732377       0.14258100      -0.86309683       0.00010451       0.00020618       0.00008752      -0.09329403
C       -0.36006589      -1.35077288      -0.23159110      -0.00035477      -0.00021945      -0.00044565       0.20579169
O       -0.83607877      -1.83826316      -1.21937176       0.00008814       0.00020559       0.00037603      -0.35336701
C       -1.05007763      -0.80404364       1.01349988      -0.00032874      -0.00049986      -0.00003493      -0.01258606
N       -2.38537002      -0.38596440       0.73246681       0.00028043       0.00055809      -0.00000281      -0.20959739
C       -2.52539874       0.85869781       0.00232338      -0.00022023      -0.00022749      -0.00017881      -0.04095642
N        0.71651922       1.34479659      -0.20670733      -0.00003288      -0.00036678       0.00026575       0.51862058
O        0.88677972       1.40215328       1.01566328       0.00001912       0.00014648      -0.00012031      -0.46288074
O        0.32488477       2.29663817      -0.86956527      -0.00013601       0.00013345      -0.00012084      -0.43075641
H        0.73669538      -1.82247667       0.13668474       0.00004190       0.00003636       0.00024686       0.09861675
H        2.11456892      -1.56211729      -1.19085954       0.00008742       0.00010607       0.00014317       0.07970743
H        3.55123596      -0.19409097       0.42629628       0.00026936       0.00019683      -0.00028116       0.08412780
H        2.23475113      -0.23118109       1.59048827       0.00012634       0.00012588      -0.00013757       0.09824045
H        3.05041101      -1.74020560       1.10960525       0.00011441       0.00018775       0.00015335       0.05736416
H        0.69741917       0.21382330      -1.92129035       0.00000109      -0.00001288       0.00006863       0.07853681
H       -1.08718610      -1.63154006       1.73100114      -0.00015195       0.00012576      -0.00016760       0.07150367
H       -0.49075161       0.01753417       1.47324089       0.00009222      -0.00000394       0.00014095       0.11071716
H       -2.91593912      -1.12475029       0.28228512      -0.00007416      -0.00014808      -0.00023484       0.15651656
H       -2.12990919       0.81348171      -1.01869438       0.00006330       0.00005459       0.00017504       0.03823345
H       -3.58324064       1.10770630      -0.04721560       0.00008477      -0.00002906       0.00005703       0.05267721
H       -2.00897218       1.64857660       0.54557971       0.00011447       0.00005214       0.00012941       0.06326969
