23
Properties=species:S:1:pos:R:3:forces:R:3:charge:R:1 charge=0 spin=1 energy=-1054.0354749373814 dipole="0.35367841651150006 0.38928874475527564 -0.4032565082748841" pbc="F F F"
C       -1.70229000       2.29613000       0.14058000       0.00027864      -0.00023033       0.00031346       0.02766043
O       -0.56647000       1.52060000      -0.15527000      -0.00004258       0.00038454      -0.00012386      -0.26697642
C       -0.50852000       0.29459000       0.49203000      -0.00006073      -0.00041412       0.00042753       0.00516875
N       -2.20492000      -0.64973000      -0.37915000      -0.00026961      -0.00067393      -0.00036818       0.11389372
O       -2.83719000      -1.20722000       0.42998000      -0.00009909       0.00042785       0.00030678      -0.21340834
C        0.93682000      -0.14766000       0.77653000      -0.00012448       0.00009250       0.00026036       0.25287611
O        1.19443000      -0.61983000       1.86969000       0.00000415       0.00002393      -0.00020130      -0.43776921
N        1.84046000      -0.01151000      -0.20798000      -0.00004859       0.00020503       0.00013478      -0.06574640
C        1.57236000       0.47812000      -1.53855000       0.00003227      -0.00022768      -0.00023676      -0.06752878
C        3.23185000      -0.26893000       0.09005000       0.00022671       0.00014081      -0.00010317      -0.05492086
O       -0.95920000      -1.75597000      -1.09597000       0.00015713      -0.00012349      -0.00053549      -0.53629636
H       -1.76769000       2.51173000       1.21281000       0.00001488      -0.00004183      -0.00016516       0.04357349
H       -1.59149000       3.22625000      -0.41280000      -0.00003364       0.00013993      -0.00009586       0.06722216
H       -2.61584000       1.78539000      -0.17852000      -0.00002666       0.00001174      -0.00002059       0.05193082
H       -1.02808000       0.28404000       1.45491000       0.00015399       0.00019519       0.00004152       0.06112535
H        2.26151000      -0.01124000      -2.22737000      -0.00019511       0.00015531       0.00010096       0.06457325
H        0.55595000       0.25086000      -1.84644000       0.00004882       0.00006990       0.00006816       0.08951772
H        1.72323000       1.55845000      -1.59696000       0.00004319      -0.00002374      -0.00002031       0.06328648
H        3.61486000      -1.05746000      -0.56075000       0.00000124      -0.00002699       0.00005470       0.05535675
H        3.31010000      -0.58830000       1.12714000      -0.00002967       0.00000683      -0.00000735       0.08902130
H        3.82493000       0.63571000      -0.05892000      -0.00010753      -0.00018889       0.00005393       0.05472817
H       -0.58087000      -0.79784000      -0.34955000       0.00010445       0.00013310       0.00004326       0.31153386
H       -0.98937000      -2.58303000      -0.60496000      -0.00002776      -0.00003565       0.00007257       0.29117802
