31
Properties=species:S:1:pos:R:3:forces:R:3:charge:R:1 charge=0 spin=1 energy=-1560.3748930397066 dipole="-0.0609897224185032 0.5354316280066238 -0.3464127320570346" pbc="F F F"
C        0.36987000       3.71340000       0.32809000       0.00024976       0.00007587      -0.00012746       0.02892481
O       -0.38043000       2.84554000      -0.51333000      -0.00048330      -0.00015246      -0.00014459      -0.24852246
C       -1.10512000       1.91309000       0.09971000       0.00041967       0.00020669       0.00063394       0.36419857
O       -1.18127000       1.78896000       1.29442000       0.00012781      -0.00008711      -0.00071782      -0.41132300
C       -1.83711000       1.02552000      -0.88783000      -0.00043597      -0.00002564       0.00004061      -0.10129875
C       -1.88638000      -0.38667000      -0.32868000      -0.00030091      -0.00003537      -0.00008600      -0.00693059
N       -3.06464000      -1.04042000      -0.57262000       0.00029435       0.00007646      -0.00017884       0.03584402
O       -3.01532000      -2.38225000      -0.60731000       0.00018744      -0.00012035      -0.00009207      -0.26941548
C       -0.58325000      -1.10224000      -0.21213000      -0.00000131      -0.00037106      -0.00010906       0.35575834
O       -0.41967000      -2.28170000      -0.06182000      -0.00000505       0.00030699       0.00000224      -0.38499650
O        0.41085000      -0.18572000      -0.31089000       0.00003067       0.00012299       0.00034041      -0.27183659
C        1.74974000      -0.48908000      -0.12821000       0.00004682       0.00023105      -0.00033863       0.14755429
C        2.21535000      -1.51317000       0.68282000       0.00014064       0.00009996       0.00008796      -0.04660090
C        3.58153000      -1.68658000       0.83025000       0.00005619       0.00010312      -0.00011277      -0.02747288
C        4.47539000      -0.84869000       0.18759000      -0.00011985       0.00002572      -0.00006201      -0.03447067
C        4.00209000       0.17917000      -0.61198000       0.00009335       0.00013878      -0.00004083      -0.02921391
C        2.64247000       0.36150000      -0.77282000      -0.00029920      -0.00025195       0.00009278      -0.04888657
O       -3.56374000      -0.63032000       1.17428000       0.00020829       0.00022251       0.00044749      -0.57588145
H        0.83105000       4.44892000      -0.32575000      -0.00014370      -0.00024015       0.00010041       0.07225834
H        1.13203000       3.14584000       0.86576000      -0.00000492      -0.00002292       0.00004243       0.06641774
H       -0.28562000       4.19921000       1.05314000       0.00004522       0.00007382       0.00015050       0.06723847
H       -1.33718000       1.07005000      -1.85579000       0.00005068      -0.00008859       0.00005175       0.08272200
H       -2.86078000       1.38750000      -0.99613000       0.00013856       0.00008503      -0.00015891       0.09989240
H       -3.91052000      -2.68502000      -0.83529000      -0.00018500      -0.00005603      -0.00004582       0.32859184
H        1.52457000      -2.16909000       1.18586000      -0.00011799      -0.00012166       0.00005600       0.06981519
H        3.94553000      -2.48544000       1.45863000       0.00002025      -0.00009079       0.00010795       0.04416099
H        5.53821000      -0.99329000       0.31002000       0.00011047      -0.00003178       0.00003827       0.03947476
H        4.69316000       0.84008000      -1.11361000      -0.00000218      -0.00008388       0.00004746       0.04035722
H        2.25152000       1.15664000      -1.38915000      -0.00000593       0.00003429       0.00007933       0.04904444
H       -2.30831000      -0.15213000       0.93843000      -0.00024401      -0.00004472       0.00016929       0.31255573
H       -4.31205000      -0.71391000       1.78868000       0.00012915       0.00002118      -0.00027399       0.25204060
