14
Properties=species:S:1:pos:R:3:forces:R:3:charge:R:1 charge=0 spin=1 energy=-668.2455342895291 dipole="-0.7833027389357676 0.4719629324698694 -0.23505362965262488" pbc="F F F"
O        2.65091000      -0.20480000       0.03159000      -0.00023971      -0.00058959       0.00016255      -0.38886286
N        1.44333000      -0.61234000       0.10312000       0.00095097       0.00010601      -0.00013598       0.02317528
N        0.76131000       0.43236000      -0.10303000      -0.00036356       0.00009320       0.00055813      -0.04576198
N       -0.59256000       0.51412000      -0.25475000       0.00015008      -0.00073907      -0.00149200       0.05224776
C       -1.10749000       1.84346000      -0.00352000      -0.00001011       0.00028546       0.00047749      -0.05657322
O       -1.30217000      -0.44505000       0.50554000       0.00015646       0.00048218       0.00039309      -0.25639763
C       -1.49088000      -1.64674000      -0.21375000       0.00000156      -0.00005500      -0.00010078       0.02590984
H        1.90034000       1.02621000      -0.21875000      -0.00049380       0.00023210      -0.00004542       0.25758000
H       -0.54985000       2.54320000      -0.62173000      -0.00001657      -0.00007005       0.00000005       0.07049210
H       -2.15502000       1.85081000      -0.29558000      -0.00017146       0.00005006       0.00002381       0.07615280
H       -1.02469000       2.12830000       1.04946000      -0.00001491       0.00015026       0.00012967       0.05954531
H       -2.11368000      -2.26005000       0.43316000       0.00004943       0.00008881       0.00003753       0.07473476
H       -0.53748000      -2.14837000      -0.39649000      -0.00002186      -0.00003929       0.00000002       0.06009039
H       -2.00389000      -1.46057000      -1.16088000       0.00002346       0.00000493      -0.00000816       0.04766746
