28
Properties=species:S:1:pos:R:3:forces:R:3:charge:R:1 charge=0 spin=1 energy=-1161.58660183835 dipole="-0.40173372332540574 -0.1440597071546434 -0.5319526791989111" pbc="F F F"
C        2.65038000       0.48203000       0.94712000      -0.00038522       0.00010108       0.00016636       0.02870288
O        2.24094000      -0.65848000       0.21136000      -0.00002355      -0.00016996       0.00007838      -0.31172252
C        2.13262000      -0.46279000      -1.16646000       0.00019863       0.00006540      -0.00029687       0.09025388
C        0.86681000       0.32120000      -1.60292000       0.00067509      -0.00011098       0.00036988      -0.11207570
C       -0.34192000      -0.50199000      -1.30557000       0.00009116       0.00091584      -0.00070721       0.35504421
O       -0.71814000      -1.47618000      -1.89200000      -0.00073601      -0.00075576       0.00069037      -0.35906775
O       -1.03264000      -0.01369000      -0.20478000      -0.00069413      -0.00069239       0.00034844      -0.14192914
C       -1.90532000      -0.93535000       0.45516000      -0.00101093       0.00045317       0.00052620       0.05365436
C       -1.10911000      -2.07218000       1.14294000       0.00036035       0.00030392      -0.00059212       0.01354129
N       -0.09420000      -1.65426000       2.06788000       0.00040351       0.00003821       0.00033109      -0.33737210
C       -2.08227000       1.46700000      -0.79974000       0.00007872       0.00009307      -0.00103552      -0.02305139
Cl      -0.33077000       2.40165000       0.79088000      -0.00000768      -0.00052646      -0.00039355      -0.60447653
H        3.55322000       0.92091000       0.51033000       0.00021379       0.00010114      -0.00016277       0.02985080
H        2.86942000       0.12902000       1.95295000       0.00003074       0.00003905      -0.00003616       0.05920130
H        1.86299000       1.23915000       0.99220000       0.00012777      -0.00003857       0.00002193       0.06946892
H        2.10418000      -1.46306000      -1.60902000       0.00006011       0.00020022      -0.00002221       0.05982370
H        3.01186000       0.07510000      -1.54818000      -0.00012197      -0.00000706       0.00024661       0.04142973
H        0.80782000       1.26443000      -1.05840000      -0.00002873       0.00029034       0.00023393       0.11372011
H        0.93636000       0.48744000      -2.67789000      -0.00003587      -0.00013097      -0.00010333       0.07716003
H       -2.61892000      -1.36545000      -0.25573000      -0.00007038      -0.00011237      -0.00012478       0.05747142
H       -2.42538000      -0.33951000       1.20757000       0.00044439      -0.00010263       0.00007212       0.07664920
H       -1.84904000      -2.67717000       1.67885000      -0.00004954      -0.00014450      -0.00011479       0.05268446
H       -0.64248000      -2.69962000       0.38057000       0.00030373       0.00015177      -0.00034934       0.05940009
H       -0.44935000      -0.96453000       2.72051000      -0.00008693       0.00024865       0.00008599       0.14902838
H        0.70279000      -1.25581000       1.58212000      -0.00008973      -0.00019514      -0.00017370       0.17373661
H       -2.62351000       1.88499000       0.02765000      -0.00020551       0.00025225       0.00034738       0.12826782
H       -2.63989000       0.74866000      -1.38860000       0.00026310       0.00001659      -0.00002471       0.07600754
H       -1.50598000       2.16659000      -1.37502000       0.00029507      -0.00028391       0.00061838       0.12459838
