18
Properties=species:S:1:pos:R:3:forces:R:3:charge:R:1 charge=0 spin=1 energy=-911.7787313902492 dipole="-0.120367284846019 -0.8886092037576728 0.08669885914704353" pbc="F F F"
C        1.85060000      -1.86491000       0.84963000       0.00012670       0.00012991      -0.00014526      -0.12220429
C        1.76166000      -0.64959000       0.00742000       0.00085987      -0.00061209       0.00007623       0.05379287
Cl       0.01539000      -1.14216000      -1.36281000      -0.00076207       0.00025077      -0.00021234      -0.34475612
C        1.22820000       0.53129000       0.53991000      -0.00003354       0.00059743       0.00067038      -0.09738496
C        1.42220000       1.74336000      -0.14590000      -0.00031236      -0.00010646       0.00040412       0.11119995
N        1.58882000       2.71245000      -0.73711000      -0.00005655      -0.00025452       0.00013171      -0.22625283
S       -1.03231000       0.19492000       0.37736000      -0.00096498      -0.00091763       0.00048467       1.12651871
C       -2.54201000      -0.17313000      -0.61367000       0.00026616      -0.00013425      -0.00040354      -0.18677879
O       -1.19686000       1.60010000       0.63084000       0.00043675       0.00064641       0.00004133      -0.53094264
O       -1.03838000      -0.73273000       1.47305000       0.00019805       0.00034449       0.00012431      -0.52911282
H        1.99930000      -2.75839000       0.24940000      -0.00009257       0.00014835       0.00009109       0.07734320
H        0.95442000      -1.96706000       1.46011000      -0.00010177      -0.00010624       0.00009668       0.09389544
H        2.70659000      -1.75633000       1.51949000      -0.00002488      -0.00003594       0.00002705       0.08933014
H        2.40314000      -0.59048000      -0.86412000      -0.00023052      -0.00003106      -0.00021729       0.08781567
H        1.04652000       0.60344000       1.60231000       0.00036888       0.00025421      -0.00078940       0.09077127
H       -2.59859000      -1.24563000      -0.74363000       0.00012625       0.00003080      -0.00010415       0.10348857
H       -2.44727000       0.35187000      -1.55488000      -0.00004294      -0.00000434      -0.00025128       0.09871248
H       -3.37255000       0.21235000      -0.03439000       0.00023951      -0.00019985      -0.00002431       0.10456416
