16
Properties=species:S:1:pos:R:3:forces:R:3:charge:R:1 charge=0 spin=1 energy=-787.0323039543673 dipole="-0.1195388228151447 1.293862230573348 -0.4809805869470684" pbc="F F F"
C       -0.62066000       2.94594000      -0.17382000      -0.00006949       0.00001672       0.00012814      -0.11475021
C       -0.06947000       1.70095000       0.40555000       0.00022183      -0.00003340      -0.00052443      -0.01290962
C        0.84502000       0.23409000      -1.32437000       0.00010383       0.00026046      -0.00021861      -0.02174034
Br       2.23312000      -0.53262000      -0.25864000      -0.00024458      -0.00005046       0.00006160      -0.14564390
C       -0.93578000       0.72280000       1.04508000       0.00034641      -0.00107545      -0.00082591       0.03186780
C       -0.37446000      -0.16693000       2.01648000      -0.00000706      -0.00035395       0.00037864       0.11799294
N        0.06200000      -0.87820000       2.79677000      -0.00012398       0.00028131      -0.00037066      -0.18265172
S       -1.17366000      -0.06334000      -0.63440000       0.00010261       0.00004229       0.00131876       0.06102072
Cl      -3.02750000      -1.18916000      -0.55320000       0.00043517       0.00036768      -0.00014113      -0.29581184
H       -0.07073000       3.24019000      -1.06715000      -0.00002183       0.00004348      -0.00003519       0.07208772
H       -0.51133000       3.76092000       0.54736000      -0.00001194       0.00008001       0.00002121       0.08294002
H       -1.67325000       2.84129000      -0.42447000      -0.00005926       0.00010007       0.00004783       0.06913551
H        0.97868000       1.69771000       0.66602000       0.00008462       0.00007605       0.00000626       0.08680478
H        1.12769000       1.21913000      -1.67168000      -0.00001689      -0.00006222      -0.00020500       0.07219937
H        0.66582000      -0.42463000      -2.16811000       0.00003925      -0.00007808       0.00012674       0.07463867
H       -1.93189000       1.06270000       1.33427000      -0.00077869       0.00038548       0.00023173       0.10482008
