20
Properties=species:S:1:pos:R:3:forces:R:3:charge:R:1 charge=0 spin=1 energy=-863.7182454236377 dipole="-0.010494481896386028 -0.6013953885122783 0.5995529150735129" pbc="F F F"
O        0.57130000      -0.74670000      -1.20197000       0.00008172      -0.00003588       0.00014632      -0.54924576
C        1.31025000      -0.72023000      -0.05028000      -0.00023064       0.00018688       0.00002160       0.12834194
C        2.75166000      -0.28322000      -0.29721000       0.00033080       0.00021245      -0.00010896       0.20710769
O        3.42611000       0.35291000       0.45795000      -0.00026480      -0.00022510      -0.00013657      -0.30671175
C        0.44137000       0.23214000       0.65586000       0.00005113      -0.00040406      -0.00004311       0.05219663
C        0.44336000       1.65001000       0.28767000       0.00003276       0.00023028      -0.00020976      -0.11389472
N       -1.64590000      -0.50512000      -0.08095000      -0.00032593       0.00021177       0.00016662      -0.16318853
C       -2.16669000      -1.63800000       0.65329000       0.00022933      -0.00001111      -0.00008570      -0.03083118
C       -2.39135000       0.55327000      -0.25773000       0.00019677      -0.00008931       0.00006214       0.16366003
N       -2.97590000       1.53909000      -0.36419000       0.00003521      -0.00008443      -0.00001017      -0.29688666
H       -0.88819000      -0.71790000      -0.81544000       0.00012897      -0.00000510      -0.00014671       0.27180657
H        1.38464000      -1.70826000       0.45103000      -0.00001389      -0.00001737       0.00003962       0.03623285
H        3.10999000      -0.63157000      -1.28229000      -0.00001264       0.00002404       0.00013362       0.05668507
H       -0.06463000      -0.05252000       1.56903000      -0.00000860       0.00002082      -0.00007084       0.07902386
H       -0.55292000       2.09364000       0.31631000       0.00004324      -0.00001092       0.00001200       0.09627242
H        0.89262000       1.80842000      -0.68949000      -0.00008537      -0.00003957       0.00012284       0.09058716
H        1.04899000       2.16637000       1.04077000      -0.00000207       0.00003160       0.00004788       0.11276306
H       -2.68851000      -1.30681000       1.55310000      -0.00004505       0.00000433       0.00004055       0.05347143
H       -1.33525000      -2.28439000       0.93298000      -0.00004699       0.00002585       0.00003520       0.05601975
H       -2.86507000      -2.21824000       0.04266000      -0.00009394      -0.00002516      -0.00001657       0.05659015
