21
Properties=species:S:1:pos:R:3:forces:R:3:charge:R:1 charge=0 spin=1 energy=-1220.6177295916475 dipole="-0.9480215129799825 0.7518993595656549 -0.37424403657740524" pbc="F F F"
C       -1.27506228       2.30781346       0.72234455      -0.00019303      -0.00001103       0.00017913      -0.12896911
C       -2.33212486       1.37802543       0.14400845       0.00001886      -0.00022858       0.00018809      -0.09331108
C       -1.85345345       0.15418330      -0.56580559       0.00055956       0.00078873       0.00040829       0.30735694
O       -2.51109849      -0.75024716      -0.96461037      -0.00042399      -0.00060417      -0.00028466      -0.31202301
N       -0.39777602       0.20664991      -0.99018558      -0.00002210      -0.00002723       0.00049878      -0.19224563
C        0.44551260      -0.95312875      -0.61312404       0.00011903      -0.00016449      -0.00018741       0.31429249
O        1.09593941      -1.61655552      -1.34316053      -0.00021425       0.00015990       0.00018857      -0.30192663
N        0.00537329      -1.41318683       0.77155111      -0.00095939       0.00051723       0.00080193       0.53110817
O        0.58457194      -2.34266504       1.24018446      -0.00014768       0.00027230      -0.00015413      -0.28320812
O       -0.89943628      -0.77683872       1.26953030       0.00109933      -0.00083211      -0.00069421      -0.34451161
O        1.46695966       0.43280617       0.30763424       0.00069367       0.00018637      -0.00014777      -0.47797752
C        2.70581131       0.77917190       0.07363268      -0.00053238      -0.00008419       0.00004707       0.35786028
O        3.03888605       1.88487227      -0.24530650      -0.00004586      -0.00024700       0.00006887      -0.38419790
H       -0.63508652       1.77439566       1.41957026      -0.00003100       0.00008733      -0.00010948       0.07772364
H       -1.77002185       3.10266870       1.27374693       0.00007247      -0.00006947      -0.00002928       0.07057186
H       -0.66983045       2.77684760      -0.05056354       0.00001749       0.00000937       0.00000823       0.05336088
H       -2.99479356       1.02670326       0.93786820       0.00016729       0.00013312      -0.00023243       0.11351201
H       -2.96115986       1.91647440      -0.57283472      -0.00000731       0.00001124      -0.00003271       0.09629655
H       -0.32917498       0.35321538      -2.00055778       0.00005271       0.00002615      -0.00044707       0.24290665
H        0.33860036       0.91066899      -0.35846087      -0.00010114      -0.00010877      -0.00008537       0.35040722
H        3.41615397      -0.06035440       0.20032835      -0.00012228       0.00018530       0.00001556       0.00297391
