16
Properties=species:S:1:pos:R:3:forces:R:3:charge:R:1 charge=0 spin=1 energy=-795.470938847747 dipole="0.810385479250182 0.386620303218259 -0.1571568224826962" pbc="F F F"
N       -2.90918000      -0.63724000      -0.70909000       0.00024945      -0.00021307      -0.00002191      -0.38277776
C       -1.79094000      -0.47844000      -0.31517000      -0.00019868       0.00036774      -0.00018425       0.18806696
O       -2.08594000       0.12870000       1.24748000      -0.00042080      -0.00025832      -0.00003124      -0.51587103
C       -0.35541000      -0.58659000      -0.60829000      -0.00001117      -0.00004899      -0.00015957      -0.09340571
C        0.40703000       0.69088000      -0.35656000      -0.00004184      -0.00033294       0.00039778       0.25738726
O       -0.05541000       1.68557000       0.13471000       0.00014671       0.00016515      -0.00033272      -0.34361242
C        1.88595000       0.59681000      -0.71847000       0.00030553       0.00068607      -0.00015045      -0.11482930
C        2.57774000      -0.21094000       0.35637000       0.00026149      -0.00009761       0.00016474       0.22061006
O        2.32461000      -1.35278000       0.61167000      -0.00015596      -0.00021079       0.00001470      -0.30855131
H       -3.14368000      -0.09926000       0.61070000       0.00024198       0.00013004       0.00037066       0.36472579
H       -1.80899000       1.04182000       1.41134000      -0.00005583       0.00002556      -0.00006748       0.29975161
H       -0.23967000      -0.90000000      -1.64880000      -0.00000321       0.00003250       0.00009433       0.09151534
H        0.09859000      -1.36015000       0.02445000       0.00007153      -0.00012883       0.00007290       0.12157286
H        2.31101000       1.59677000      -0.78341000      -0.00005750      -0.00004091      -0.00013435       0.07926262
H        1.99069000       0.07063000      -1.66757000      -0.00015027       0.00000118       0.00000820       0.09385574
H        3.34410000       0.34858000       0.91877000      -0.00018144      -0.00007678      -0.00004132       0.04229928
