19
Properties=species:S:1:pos:R:3:forces:R:3:charge:R:1 charge=0 spin=1 energy=-995.7675543393271 dipole="0.1699082348084379 0.23433876865501163 -0.6304695237165501" pbc="F F F"
O        3.52105463      -1.73674677      -0.65238417      -0.00010877       0.00067356       0.00062386      -0.19938108
N        3.49373052      -0.83277389       0.07784631       0.00021709      -0.00064287      -0.00039019       0.14224299
C        2.37901018       0.61053703      -0.51751565      -0.00067069       0.00041019      -0.00019843      -0.19873877
S        0.68768052       1.46426915      -0.37594226       0.00011895      -0.00010362      -0.00022174       0.44582928
O        0.53668237       1.92000500       0.99737254       0.00006751       0.00015341       0.00043377      -0.47051875
C       -0.34250083      -0.07767127      -0.53026504       0.00019003      -0.00007720       0.00005870      -0.10782281
C       -1.78310243       0.30682883      -0.23625808       0.00004908      -0.00001109       0.00003342       0.01529921
N       -2.58886131      -0.89836409      -0.21176192       0.00031994      -0.00003498      -0.00024463      -0.19029573
Cl      -4.25640667      -0.54363257       0.18450199      -0.00034129       0.00006605       0.00013433      -0.09090446
O        2.21132546      -1.07543286       1.33642990      -0.00021076      -0.00053705      -0.00013067      -0.54306532
H        2.38417699       0.31815672      -1.56311120       0.00025786      -0.00014129      -0.00000348       0.07333410
H        3.10206125       1.40118078      -0.33366504      -0.00001516      -0.00001464      -0.00009674       0.08302459
H       -0.22025372      -0.44106878      -1.54893928      -0.00001914       0.00001566      -0.00006983       0.05411154
H       -0.00560297      -0.82851009       0.18145867      -0.00013136      -0.00005188      -0.00018175       0.09816924
H       -2.13591624       1.04790642      -0.97064110      -0.00012147       0.00002666      -0.00009266       0.02637609
H       -1.83335158       0.75660262       0.75950238      -0.00001166       0.00021642       0.00006840       0.07564776
H       -2.61007499      -1.32740053      -1.13510805       0.00009651      -0.00014358       0.00012633       0.16735510
H        2.02982995      -0.07254442       0.53733871       0.00017292       0.00002879       0.00014220       0.32314676
H        2.64210888      -0.81514128       2.15330127       0.00014043       0.00016746       0.00000910       0.29619027
