19
Properties=species:S:1:pos:R:3:forces:R:3:charge:R:1 charge=0 spin=1 energy=-922.7405741771024 dipole="0.009230546172537206 -0.39313022980533285 0.2180001769712269" pbc="F F F"
C        0.93227776      -0.50867480       1.97048875      -0.00034093       0.00027543      -0.00034986      -0.05116978
N        0.65597655      -0.30173614       0.57013552      -0.00010469      -0.00026049      -0.00058270      -0.16665889
C        0.22048772      -1.42515477      -0.20606685       0.00026863       0.00058274      -0.00018951       0.14401468
O       -1.17025218      -1.52888342      -0.34728652      -0.00008343       0.00006317      -0.00000527      -0.30599480
C       -1.80434726      -0.43268878      -0.98283744       0.00006746       0.00051083       0.00029237       0.07840708
C       -2.17292092       0.59551750      -0.02494340       0.00075989      -0.00109605      -0.00146780       0.11094331
N       -2.45223894       1.36527112       0.77252759      -0.00063897       0.00112136       0.00124146      -0.20940310
N        1.97130989       0.52658618      -0.16730744      -0.00028529       0.00045579       0.00065450       0.13937681
O        2.28490045       0.03568917      -1.18584749      -0.00012081      -0.00021797      -0.00035551      -0.26279223
O        0.66523269       1.78520686      -0.45994790       0.00045653      -0.00011390       0.00022321      -0.56168637
H        1.42161326       0.38132377       2.36044858      -0.00009449       0.00004217       0.00013296       0.07347630
H        1.58505748      -1.37194876       2.12132225       0.00032031      -0.00007372       0.00009653       0.05237867
H       -0.00161356      -0.66934549       2.51210839       0.00009771      -0.00010968      -0.00015449       0.06723687
H        0.52749481      -2.37437301       0.24824487      -0.00000186      -0.00016316       0.00011735       0.05769779
H        0.70398964      -1.32665300      -1.20150218       0.00004658      -0.00007046       0.00032733       0.06128090
H       -2.71757240      -0.82620968      -1.44336617       0.00028074      -0.00006301       0.00012044       0.08851343
H       -1.16385338       0.01158325      -1.75884059      -0.00032578      -0.00014373       0.00025750       0.07964642
H        0.19907262       0.80744862       0.24429305      -0.00008509      -0.00007703      -0.00030210       0.31718481
H        0.93431573       2.52437138       0.08737697      -0.00021653      -0.00066226      -0.00005641       0.28754810
