17
Properties=species:S:1:pos:R:3:forces:R:3:charge:R:1 charge=0 spin=1 energy=-806.2042055746332 dipole="-0.6264129153242664 -0.20782129690554324 -0.0038662939718243057" pbc="F F F"
C       -1.79794457       1.49344788      -0.34790867       0.00057851       0.00060985      -0.00078662      -0.04385692
N       -2.07289592       0.07043259      -0.44860983       0.00028144       0.00000753       0.00003515      -0.14207971
O       -1.52872797      -0.60841865       0.69749800       0.00031812      -0.00069904       0.00007327      -0.26212334
C       -0.54034427      -1.51736633       0.31075564      -0.00009790       0.00027575      -0.00110107       0.12566492
N        0.53227534      -0.91220332      -0.43298008      -0.00058496      -0.00077948       0.00080650      -0.03998746
N        1.57468581      -0.45123632       0.15717895       0.00056612       0.00072175      -0.00059750       0.10186967
O        2.47375549       0.01614598      -0.70987560      -0.00012711      -0.00060224       0.00049723      -0.44857364
O        1.39938842       1.35938991       0.72126960      -0.00003452      -0.00029360       0.00047345      -0.60936732
H       -2.31513022       1.97704015       0.48609712      -0.00013816       0.00016490       0.00003331       0.03214096
H       -2.11063802       1.94991039      -1.28509557       0.00028368      -0.00000420       0.00072612       0.04802934
H       -0.72559893       1.63050651      -0.21404125      -0.00041558       0.00024242      -0.00016953       0.08393540
H       -3.07764164      -0.09618168      -0.40236329      -0.00022013      -0.00017491       0.00079308       0.15043394
H       -0.14010651      -1.91772188       1.24536604       0.00009908       0.00038827       0.00033058       0.09264689
H       -0.96643004      -2.31688361      -0.31261303       0.00016115      -0.00007973      -0.00033362       0.05458738
H        0.33430660      -0.62684124      -1.39591975       0.00009905      -0.00008692      -0.00040117       0.19304147
H        2.35558167       1.05157093      -0.11775766      -0.00007132      -0.00019048       0.00000139       0.39669910
H        1.68753477       1.41562868       1.63221938      -0.00069745       0.00050015      -0.00038058       0.26693931
