17
Properties=species:S:1:pos:R:3:forces:R:3:charge:R:1 charge=0 spin=1 energy=-962.1186051037846 dipole="0.026913017825278492 0.1403551628671919 -0.2362310560404189" pbc="F F F"
C       -2.92483305       1.53647609      -0.05137928      -0.00024835      -0.00016999      -0.00017235      -0.18029217
S       -2.19952633      -0.16515712       0.06582849       0.00003217      -0.00011401       0.00039376       1.11896568
O       -2.73538932      -0.80397790      -1.10575748       0.00000672       0.00018203       0.00011571      -0.53595084
O       -2.58190626      -0.56347517       1.39263088       0.00000611       0.00005185      -0.00040584      -0.53361209
C       -0.58721351      -1.54903623       0.08159521       0.00024232      -0.00009657      -0.00008237      -0.12234590
C        0.52382613      -1.04161049      -0.14903098      -0.00010723       0.00002939       0.00001446       0.06343841
Cl      -0.15141907       1.12515522      -0.20144280       0.00009002       0.00003244      -0.00003997      -0.38108671
C        1.93358778      -0.87438968      -0.45716442      -0.00010778      -0.00004790      -0.00006519       0.02272582
N        2.60230982      -0.05651014       0.53554784      -0.00002570       0.00007851       0.00011889      -0.17669201
Cl       4.24552093       0.28963039       0.05892440      -0.00017201       0.00001861      -0.00001205      -0.08243377
H       -2.65642847       1.94861705      -1.01492326       0.00001433      -0.00008911       0.00005133       0.09611871
H       -3.99487679       1.39022044       0.03351208       0.00016889       0.00009938       0.00005575       0.09696053
H       -2.53841786       2.12036345       0.77331631       0.00012085      -0.00007211       0.00002344       0.09588513
H       -1.11270809      -2.44525707       0.28611247      -0.00000075       0.00013696      -0.00000692       0.13355155
H        2.38181858      -1.87717867      -0.42062502      -0.00004240      -0.00002806       0.00009053       0.10485031
H        2.03793071      -0.48471681      -1.48205365      -0.00002592       0.00000942      -0.00003649       0.08493687
H        2.11667481       0.83991663       0.60566921       0.00004873      -0.00002083      -0.00004269       0.19498049
