39
Properties=species:S:1:pos:R:3:forces:R:3:charge:R:1 charge=0 spin=1 energy=-1732.4236360192933 dipole="0.07966082881109722 0.4341890376568248 0.018757627028441377" pbc="F F F"
C       -2.09799000      -0.84246000      -0.94263000      -0.00021113       0.00021370      -0.00024216      -0.01401893
C       -1.42469000      -1.05337000       0.29599000       0.00031673       0.00003558      -0.00011864      -0.04890623
N        0.22983000       0.14169000      -0.81497000       0.00003843       0.00011656       0.00029784      -0.30196327
C        0.99364000      -0.95260000      -1.08176000      -0.00016311      -0.00028921      -0.00034285       0.27743422
O        0.67602000      -1.73903000      -1.96203000       0.00012036       0.00028130       0.00035381      -0.44980865
C        2.14435000      -1.23700000      -0.16803000       0.00043302      -0.00013498       0.00026696      -0.01780534
C        3.19198000      -2.00732000      -0.66373000      -0.00016834       0.00023775       0.00031890      -0.02141637
C        4.28671000      -2.28795000       0.13153000      -0.00030551       0.00004883      -0.00035221      -0.02803768
C        4.33648000      -1.81441000       1.43251000       0.00026654       0.00008478       0.00032432      -0.02602652
C        3.28654000      -1.06464000       1.93738000       0.00004044      -0.00002760       0.00032970      -0.02909500
C        2.19355000      -0.77320000       1.14240000      -0.00017287      -0.00014818      -0.00050432      -0.02866362
C        0.75413000       1.35583000      -0.46012000       0.00002268      -0.00023045       0.00007973       0.09062431
C        2.02511000       1.77940000      -0.87865000      -0.00000741      -0.00014768      -0.00018954      -0.04274560
C        2.48277000       3.04072000      -0.56148000      -0.00019102       0.00021002       0.00016320      -0.02788412
C        1.69403000       3.90883000       0.17740000       0.00034921      -0.00004919      -0.00014535      -0.03203290
C        0.43208000       3.50690000       0.58960000      -0.00031585       0.00035955       0.00024308      -0.02952870
C       -0.03859000       2.25092000       0.27270000      -0.00028653      -0.00013200       0.00013079      -0.04693690
N       -3.15936000       0.12748000      -1.04632000      -0.00039839      -0.00038808       0.00005693      -0.21282874
C       -4.46140000      -0.33042000      -0.74498000       0.00019844      -0.00007817       0.00010570      -0.00324514
N       -4.72166000      -0.48483000       0.74542000       0.00019629      -0.00001495      -0.00051637       0.52276823
O       -3.95849000       0.08746000       1.48533000       0.00007026       0.00012236       0.00011207      -0.37312662
O       -5.67483000      -1.14282000       1.07228000      -0.00010259      -0.00003145       0.00010452      -0.36385515
H       -1.15096000      -0.31812000      -1.48248000      -0.00034891      -0.00020563      -0.00017886       0.22483929
H       -2.31331000      -1.73159000      -1.53191000      -0.00005489       0.00002284      -0.00001133       0.08965120
H       -0.83695000      -1.93848000       0.45219000       0.00011666      -0.00000949       0.00000438       0.08206542
H       -1.53560000      -0.36733000       1.11720000      -0.00003553       0.00016639       0.00016138       0.09659848
H        3.12902000      -2.37368000      -1.67775000       0.00002864      -0.00005747      -0.00011393       0.05249266
H        5.10103000      -2.87877000      -0.26147000       0.00014474      -0.00012323      -0.00004537       0.03567381
H        5.19086000      -2.03407000       2.05585000      -0.00014009       0.00001510      -0.00007896       0.03407409
H        3.31902000      -0.70533000       2.95553000       0.00002909      -0.00003415      -0.00015577       0.03255790
H        1.37427000      -0.19486000       1.54480000      -0.00003710       0.00004427       0.00007351       0.02915802
H        2.63387000       1.10771000      -1.46708000       0.00001231       0.00000577       0.00002723       0.02873324
H        3.46313000       3.35118000      -0.89248000       0.00003634      -0.00000199      -0.00001389       0.03315684
H        2.05862000       4.89339000       0.42851000      -0.00005523       0.00000969       0.00001708       0.03352940
H       -0.18703000       4.18068000       1.16405000       0.00017214      -0.00020819      -0.00015807       0.03382132
H       -1.01673000       1.93823000       0.60612000       0.00024273       0.00010536      -0.00010312       0.03395087
H       -2.93114000       0.97747000      -0.54181000       0.00008086       0.00012815       0.00006916       0.17715763
H       -5.21357000       0.38719000      -1.09220000       0.00007840      -0.00002021       0.00006731       0.09507236
H       -4.65983000      -1.30415000      -1.19938000       0.00000017       0.00012430      -0.00003688       0.09456616
