20
Properties=species:S:1:pos:R:3:forces:R:3:charge:R:1 charge=0 spin=1 energy=-723.7123048399726 dipole="0.1790271807255948 0.7774389365081108 0.04331921584205358" pbc="F F F"
C        0.13419000       1.84135000       0.36100000      -0.00008673      -0.00004712       0.00022284      -0.09173840
C        0.17173000       0.77317000      -0.70268000       0.00017612       0.00074225      -0.00059971      -0.09289277
C        1.53835000      -0.52831000      -0.32470000      -0.00009738      -0.00118879       0.00066422       0.25397408
N        2.65102000      -0.04476000       0.29953000      -0.00057743       0.00006582       0.00015276      -0.26420867
O        0.83017000      -1.38468000       0.34450000       0.00113925       0.00045485       0.00015086      -0.52524926
C       -0.63445000      -0.38552000      -0.62703000      -0.00061747      -0.00028386      -0.00061166       0.07649158
C       -1.68029000      -0.64288000       0.41259000       0.00009178       0.00002041       0.00021011       0.02603890
N       -2.92129000      -0.01923000      -0.05252000      -0.00001240       0.00003500      -0.00005785      -0.34033646
H       -0.73866000       2.48937000       0.25266000       0.00006736       0.00003043       0.00001849       0.02700665
H        1.02079000       2.46991000       0.28707000      -0.00002011      -0.00004158      -0.00000276       0.02765992
H        0.11099000       1.39902000       1.35442000       0.00001509      -0.00008993       0.00000902       0.03979962
H        0.41996000       1.14185000      -1.69051000       0.00019966       0.00009176       0.00024843       0.02213988
H        1.73311000      -0.70815000      -1.38980000      -0.00011627       0.00001455      -0.00007809       0.01332294
H        3.29529000       0.55319000      -0.18733000      -0.00007770      -0.00003361      -0.00014057       0.17271432
H        2.60460000       0.04496000       1.30122000      -0.00022125       0.00013054      -0.00027629       0.19360526
H       -0.71369000      -1.00021000      -1.51321000      -0.00004526       0.00014095       0.00004432       0.07144329
H       -1.85111000      -1.71727000       0.49608000       0.00000350       0.00000665       0.00010208       0.06395888
H       -1.33982000      -0.27422000       1.38945000       0.00018293      -0.00011781      -0.00002905       0.03955663
H       -3.66487000      -0.20702000       0.61077000       0.00004497      -0.00003579      -0.00010798       0.14599671
H       -2.80333000       0.98705000      -0.11099000      -0.00004866       0.00010528       0.00008081       0.14071692
