28
Properties=species:S:1:pos:R:3:forces:R:3:charge:R:1 charge=0 spin=1 energy=-1298.6885927715873 dipole="0.15887511966058948 0.20597682004169146 0.31195691539226766" pbc="F F F"
N       -2.99340000       2.21968000       0.82764000      -0.00000035       0.00024136      -0.00030378      -0.29076238
N       -1.95056000       1.28002000       0.42827000       0.00005078       0.00000360       0.00025012      -0.22536108
C       -2.54775000       0.02860000      -0.01503000       0.00001477       0.00007606      -0.00044718       0.01246186
C       -1.42610000      -0.86426000      -0.51616000       0.00008172      -0.00050987       0.00012148       0.01760081
N       -0.55608000      -1.44829000       0.38789000      -0.00033490      -0.00018269       0.00002080       0.00588239
O       -0.40436000      -0.79371000       1.54736000      -0.00015618       0.00001047       0.00005601      -0.47612955
S       -0.29658000       0.34101000      -1.55438000      -0.00018763      -0.00001208      -0.00019139       0.50309200
O        0.07930000      -0.44464000      -2.72308000       0.00001146       0.00012105      -0.00002900      -0.46070449
C        1.18934000       0.38223000      -0.52275000       0.00003204       0.00020536       0.00018330      -0.01751506
C        1.34722000       1.41362000       0.38445000       0.00027146      -0.00042588      -0.00015737      -0.02666082
C        2.49862000       1.46523000       1.15133000      -0.00011098       0.00009431      -0.00000654      -0.02223574
C        3.47681000       0.49594000       0.99802000      -0.00001784       0.00014909       0.00005919      -0.02355863
C        3.31508000      -0.52238000       0.07182000       0.00017659      -0.00013883      -0.00008560      -0.02318149
C        2.16741000      -0.57863000      -0.69832000      -0.00005677      -0.00005769      -0.00005991      -0.01872739
O       -1.35742000      -2.80749000       1.34854000      -0.00001872       0.00017995      -0.00008403      -0.52843736
H       -3.46109000       2.50510000      -0.03336000       0.00003823      -0.00004260       0.00024189       0.14280403
H       -2.51281000       3.04162000       1.18665000      -0.00008937       0.00002822       0.00004044       0.14543528
H       -1.41333000       1.07248000       1.27371000       0.00010528      -0.00000724      -0.00010516       0.18058315
H       -3.10738000      -0.49091000       0.77699000       0.00002103      -0.00007605       0.00012372       0.05166007
H       -3.23322000       0.25060000      -0.83818000       0.00000107      -0.00010378       0.00005008       0.03712835
H       -1.72995000      -1.59895000      -1.26001000       0.00023646       0.00036583       0.00031955       0.07507410
H        0.57292000       2.15695000       0.48824000      -0.00025678       0.00023724       0.00004396       0.05025150
H        2.63229000       2.25977000       1.87005000       0.00000269      -0.00001845       0.00000648       0.04277444
H        4.37090000       0.53533000       1.60250000       0.00004651      -0.00002502       0.00003989       0.04190016
H        4.08108000      -1.27401000      -0.04705000       0.00000348      -0.00003170      -0.00001010       0.04388212
H        2.01413000      -1.35360000      -1.43352000       0.00003863      -0.00000665      -0.00000732       0.06393071
H       -0.83481000      -1.89356000       2.01082000       0.00004169       0.00001264      -0.00007371       0.40563965
H       -0.79706000      -3.58238000       1.26395000       0.00005562      -0.00008667       0.00000418       0.29317338
