25
Properties=species:S:1:pos:R:3:forces:R:3:charge:R:1 charge=0 spin=1 energy=-1065.9529569885483 dipole="-0.780999131741792 0.5058972116506979 -0.6065159577098876" pbc="F F F"
N        2.96173000       0.02620000      -0.62176000       0.00021783       0.00004453       0.00020722      -0.32997714
C        4.40460000       0.06127000      -0.56706000       0.00015976      -0.00033920      -0.00018120      -0.01487698
C        2.22125000       0.01455000       0.45374000      -0.00017139       0.00007257      -0.00064614       0.28715586
O        2.38543000       0.02929000       1.64620000      -0.00000239      -0.00004586       0.00039676      -0.40376738
C        0.73381000      -0.02481000      -0.23477000      -0.00003563       0.00012610       0.00007548      -0.06504805
C       -0.03363000       1.16905000      -0.17689000       0.00030669       0.00011023      -0.00005978      -0.02506046
C       -1.41109000       1.16582000      -0.09269000       0.00003005       0.00042487      -0.00007753       0.01633138
C       -2.17347000       2.45259000      -0.03850000      -0.00018566      -0.00040154      -0.00001310      -0.11514073
C       -2.10238000      -0.05609000      -0.04789000      -0.00005462      -0.00015270       0.00006320       0.01134768
C       -3.59009000      -0.10415000       0.05317000      -0.00021186      -0.00010294      -0.00004989      -0.10955058
C       -1.35137000      -1.23254000      -0.08674000       0.00008225      -0.00009079      -0.00002700       0.16349626
F       -2.00364000      -2.41479000      -0.04083000      -0.00000555      -0.00003008       0.00000641      -0.22153384
C        0.01931000      -1.24885000      -0.16386000       0.00010521      -0.00025606       0.00003159      -0.03350750
H        1.57210000      -0.01209000      -1.16304000      -0.00013568       0.00002253       0.00009071       0.23598922
H        4.76636000       0.95462000      -1.08102000       0.00001604       0.00002957      -0.00002245       0.03270295
H        4.80879000      -0.81924000      -1.07128000      -0.00009266       0.00022291       0.00007523       0.03354049
H        4.75878000       0.07527000       0.46509000      -0.00002659       0.00003927       0.00002859       0.04170607
H        0.49464000       2.11181000      -0.19386000      -0.00012094      -0.00016941       0.00001943       0.05744217
H       -2.87106000       2.51992000      -0.87226000       0.00009777       0.00001524       0.00008923       0.05803480
H       -2.75092000       2.51491000       0.88263000      -0.00000327       0.00003745      -0.00001777       0.06102869
H       -1.49730000       3.30141000      -0.08116000       0.00014051       0.00019256      -0.00002430       0.05388517
H       -3.94578000      -1.13040000       0.06566000       0.00001565       0.00004345      -0.00000845       0.06823588
H       -4.04408000       0.41578000      -0.78999000      -0.00000877       0.00001025       0.00000178       0.06137036
H       -3.92237000       0.39294000       0.96414000       0.00000594       0.00003967       0.00004287       0.06388868
H        0.54629000      -2.19054000      -0.16581000      -0.00012270       0.00015736      -0.00000089       0.07230699
