16
Properties=species:S:1:pos:R:3:forces:R:3:charge:R:1 charge=0 spin=1 energy=-948.8184395968135 dipole="-0.15905384272688716 0.07489537210392945 0.234733216668505" pbc="F F F"
C       -1.47192000       1.74250000      -0.78494000       0.00004577       0.00014420      -0.00026541      -0.09039936
N       -1.58146000       0.91358000       0.39351000      -0.00012994       0.00012356       0.00003651       0.03244871
Cl      -2.57305000      -0.51560000       0.10073000       0.00017601      -0.00014240       0.00037455      -0.05232029
N       -0.37810000       0.54159000       0.93218000       0.00048261      -0.00027592      -0.00086023      -0.19455145
S        0.71071000      -0.85887000      -0.11679000      -0.00158175       0.00029238      -0.00093918       1.24748311
N        2.29214000      -1.23432000      -0.41321000      -0.00030959      -0.00213219      -0.00036854      -0.40130354
O        0.08467000      -0.66765000      -1.38225000       0.00051074       0.00012107      -0.00074875      -0.53257010
O        0.29189000      -1.89482000       0.77930000       0.00089128      -0.00115445       0.00026223      -0.56960670
Cl       2.04538000       1.51246000       0.25313000      -0.00055540       0.00091497       0.00069932      -0.70709504
H       -2.46966000       2.10401000      -1.02226000      -0.00006094       0.00002996       0.00019550       0.09645984
H       -1.05444000       1.20753000      -1.63991000       0.00005181       0.00005311       0.00006739       0.09779116
H       -0.82837000       2.58586000      -0.53937000       0.00017267      -0.00002313      -0.00013314       0.09602760
H       -0.50743000       0.08790000       1.83935000       0.00004519       0.00068151       0.00027417       0.22940942
H        2.76393000      -0.55417000      -0.99164000      -0.00038074       0.00016308       0.00009915       0.23603412
H        2.80911000      -1.44745000       0.42502000       0.00047308       0.00073682       0.00059925       0.22414800
H        0.37697000       1.31036000       0.92750000       0.00016920       0.00046742       0.00070718       0.28804450
