28
Properties=species:S:1:pos:R:3:forces:R:3:charge:R:1 charge=0 spin=1 energy=-1298.5868562511816 dipole="0.6006978504771177 -0.8595053287158457 -0.4166887562880759" pbc="F F F"
N       -1.76402000       2.80213000      -0.18507000      -0.00033600      -0.00020863       0.00033018      -0.29087818
N       -1.94472000       1.90116000      -1.26182000       0.00048451      -0.00062567      -0.00005893      -0.17994910
C       -1.05706000       0.76892000      -1.32597000      -0.00039124       0.00009216      -0.00056665       0.00235364
C       -1.24546000      -0.32029000      -0.25064000      -0.00077556       0.00004047       0.00016709      -0.01202760
N       -1.48339000      -1.54736000      -0.74645000      -0.00048918       0.00043693       0.00026270      -0.00034519
O       -1.06900000      -2.58113000       0.02916000      -0.00039070      -0.00179731      -0.00077738      -0.29863345
S       -0.25071000      -0.23314000       1.34593000      -0.00015608      -0.00021851      -0.00031227       0.42234052
O       -0.49379000       1.13092000       1.83417000       0.00011407       0.00012244       0.00017320      -0.50385688
C        1.35548000      -0.15108000       0.49664000       0.00024860      -0.00018123       0.00042232      -0.02628905
C        1.92965000      -1.30499000      -0.00766000       0.00005690       0.00011333       0.00012857      -0.03726620
C        3.16082000      -1.22591000      -0.63532000      -0.00001787       0.00026678       0.00003019      -0.02681925
C        3.80827000      -0.00482000      -0.74537000      -0.00018601      -0.00013067       0.00006608      -0.02713828
C        3.23336000       1.14160000      -0.22121000      -0.00006762       0.00005858       0.00010614      -0.02741565
C        2.00245000       1.06789000       0.40725000       0.00002280       0.00008510      -0.00058272      -0.02693673
O       -3.32845000      -1.23874000      -0.11661000       0.00016577       0.00003683      -0.00075504      -0.61409944
H       -1.53720000       2.32373000       0.69550000      -0.00001116       0.00018957      -0.00012759       0.16535380
H       -0.97898000       3.40760000      -0.41247000       0.00011480       0.00005271      -0.00005625       0.13877972
H       -2.91485000       1.59616000      -1.25764000       0.00001099       0.00020333       0.00005723       0.15262104
H       -0.02772000       1.14057000      -1.27431000       0.00028076       0.00010812      -0.00004893       0.05489739
H       -1.20649000       0.28760000      -2.29565000      -0.00000995       0.00012576       0.00026846       0.06714824
H       -1.39197000      -3.38701000      -0.40583000       0.00064168       0.00172286       0.00085768       0.33253916
H        1.41645000      -2.24869000       0.09171000       0.00000150      -0.00006128      -0.00001277       0.04707813
H        3.61810000      -2.11803000      -1.03611000       0.00005580      -0.00014450      -0.00005017       0.04000277
H        4.76839000       0.05161000      -1.23601000       0.00005177       0.00001623      -0.00000235       0.04001678
H        3.74276000       2.09030000      -0.29902000      -0.00002971      -0.00000590      -0.00003791       0.04177899
H        1.53418000       1.93989000       0.84090000       0.00011604      -0.00004063       0.00015325       0.06233744
H       -2.42402000      -0.19014000       0.18276000       0.00061891      -0.00004182       0.00007792       0.27063665
H       -4.23731000      -1.57112000      -0.05552000      -0.00012385      -0.00021504       0.00028798       0.23377073
