18
Properties=species:S:1:pos:R:3:forces:R:3:charge:R:1 charge=0 spin=1 energy=-1288.8695007688925 dipole="-0.3520302907852154 -0.034591424843018706 -0.7541763350954694" pbc="F F F"
C       -3.10236808      -1.25425787       0.07600001       0.00003359       0.00011227       0.00016183      -0.15726546
C       -1.62159376      -1.20479241      -0.00582630      -0.00013800      -0.00015110      -0.00012241       0.23942991
O       -0.85983883      -2.07827205       0.28905888       0.00003134       0.00016175       0.00004610      -0.29903609
C       -1.05872978       0.13374592      -0.58879121      -0.00002846       0.00003771      -0.00012479       0.26150377
O       -1.79619152       0.48707161      -1.69539321      -0.00011364      -0.00005150       0.00011642      -0.40655213
O        0.28099607       0.05617859      -0.87848752       0.00001643       0.00016866       0.00000267      -0.39826058
C        1.35449153      -0.37635997       0.47553692       0.00008325      -0.00010893       0.00015430       0.39064206
O        0.84950835      -0.19920057       1.51796646       0.00005750      -0.00014371      -0.00020438      -0.28333461
Cl       2.22226125      -1.67373526      -0.14108541      -0.00013511       0.00000822      -0.00006149       0.00781960
N       -1.23831671       1.32081739       0.42482821       0.00013005       0.00015855      -0.00004540       0.49223868
O       -2.11025183       1.26339350       1.24160394      -0.00033473       0.00003463      -0.00007536      -0.31934435
O       -0.49348200       2.24346398       0.20811022      -0.00001628      -0.00018157       0.00013317      -0.33905010
Cl       2.42248250       1.33772486      -0.17566829      -0.00000123       0.00013089      -0.00002418      -0.23203495
H       -3.42242833      -2.26329070       0.31831979       0.00013651       0.00001251       0.00003681       0.09416412
H       -3.53499996      -0.92183324      -0.86480847       0.00017603      -0.00000972      -0.00002422       0.10487402
H       -3.43128173      -0.56520597       0.85408438      -0.00012936       0.00002083      -0.00003286       0.12203886
H       -1.32673974       1.15344050      -2.21871752      -0.00003843      -0.00010143       0.00003654       0.33691747
H        1.02734255       1.09189170      -0.88273088       0.00027053      -0.00009804       0.00002723       0.38524979
