18
Properties=species:S:1:pos:R:3:forces:R:3:charge:R:1 charge=0 spin=1 energy=-838.171004700355 dipole="-0.7712921414398634 -0.021370152157116996 0.03859762884924537" pbc="F F F"
N       -2.43756000       0.49515000       0.11385000      -0.00037388      -0.00003030       0.00015609      -0.26604477
C       -3.35556000      -0.31999000      -0.63119000      -0.00001610       0.00001910       0.00006005      -0.02874829
C       -1.14578000       0.52316000       0.09052000       0.00045128      -0.00014488      -0.00014148       0.24024655
O       -0.77311000       1.41504000       0.94366000       0.00000237      -0.00004825      -0.00006065      -0.46701328
C       -0.19374000      -0.29031000      -0.72486000      -0.00012674       0.00006002       0.00031237      -0.09758394
C        0.79644000      -0.96873000       0.20869000      -0.00020165      -0.00019761      -0.00018043       0.25866029
O        0.74257000      -2.13421000       0.48040000       0.00002891       0.00010830      -0.00000150      -0.32818058
C        1.83057000      -0.01996000       0.79191000       0.00002639       0.00030059       0.00023709      -0.08742162
C        2.67123000       0.49754000      -0.25418000      -0.00011452      -0.00005074      -0.00002463       0.12200532
N        3.32376000       0.89584000      -1.10359000       0.00008275       0.00005563      -0.00006102      -0.22827909
H       -2.10318000       1.44692000       1.01700000      -0.00005306       0.00000832       0.00000486       0.33995187
H       -4.34444000      -0.19388000      -0.19492000       0.00017668      -0.00000902      -0.00002763       0.05916832
H       -3.07973000      -1.37644000      -0.58468000      -0.00000591       0.00008485       0.00003621       0.04545801
H       -3.39269000      -0.01033000      -1.67918000      -0.00000772      -0.00001285      -0.00011207       0.04582469
H        0.34763000       0.37751000      -1.40004000       0.00010467       0.00005134      -0.00008458       0.09042490
H       -0.74218000      -1.04014000      -1.29625000      -0.00000804       0.00001360      -0.00001097       0.07576262
H        1.29506000       0.81951000       1.25312000       0.00005920      -0.00019983      -0.00014536       0.13026508
H        2.44150000      -0.53698000       1.53530000      -0.00002463      -0.00000826       0.00004363       0.09550392
