28
Properties=species:S:1:pos:R:3:forces:R:3:charge:R:1 charge=0 spin=1 energy=-1485.0599173846801 dipole="0.042259968757473884 0.14389474229722118 -0.8853888368661551" pbc="F F F"
N        4.40259000       0.90170000      -0.98341000      -0.00001717      -0.00022082       0.00000805      -0.25387380
C        4.02676000      -0.17931000      -0.92869000       0.00005995       0.00026097      -0.00001637       0.12050519
C        3.46053000      -1.48159000      -0.76800000      -0.00026100      -0.00005428      -0.00000133      -0.08785347
C        2.27910000      -1.39810000       0.23912000       0.00014437       0.00023268      -0.00006859       0.23804475
O        2.20745000      -2.15976000       1.16268000      -0.00003142      -0.00021569       0.00009748      -0.32372080
C        1.32747000      -0.31939000      -0.09876000       0.00006350      -0.00008010      -0.00011359      -0.17503780
N        0.94286000       1.84690000       0.39944000       0.00056077       0.00014421       0.00014366       0.21147672
O        0.99736000       2.50357000      -0.53691000      -0.00025679       0.00007040      -0.00018800      -0.11306205
C       -0.06903000      -0.53675000       0.37548000      -0.00027869      -0.00010869       0.00010095       0.36182769
O       -0.39327000      -1.00706000       1.42696000       0.00009756       0.00008332      -0.00022147      -0.37745851
O       -0.92440000      -0.10055000      -0.58167000       0.00025267      -0.00003429       0.00000666      -0.27650527
C       -2.29528000      -0.08074000      -0.34664000      -0.00003288       0.00013108       0.00047896       0.14445569
C       -2.83654000       0.36605000       0.84907000      -0.00037643      -0.00020019      -0.00050079      -0.04307634
C       -4.21289000       0.40365000       0.99217000       0.00028825      -0.00000167       0.00002259      -0.02623728
C       -5.03984000       0.01045000      -0.04567000       0.00007552       0.00001065      -0.00005544      -0.03242329
C       -4.48957000      -0.42380000      -1.24018000       0.00017488       0.00002542      -0.00002251      -0.02779409
C       -3.11675000      -0.47321000      -1.39476000      -0.00031170      -0.00002701       0.00006588      -0.04547196
O        2.50035000       1.64449000       1.14426000      -0.00016485      -0.00019558       0.00009198      -0.46369764
H        3.09163000      -1.85385000      -1.72657000       0.00003105       0.00002069       0.00009377       0.09563885
H        4.20719000      -2.17641000      -0.37736000       0.00001065       0.00001485      -0.00002188       0.10300044
H        1.37833000      -0.01737000      -1.14140000       0.00001663      -0.00003756       0.00007021       0.06333592
H       -2.19149000       0.67217000       1.65683000       0.00015318       0.00008958       0.00021020       0.06125720
H       -4.63823000       0.74628000       1.92323000      -0.00003445       0.00001754       0.00003494       0.04594328
H       -6.11212000       0.04311000       0.07472000       0.00000027      -0.00001936      -0.00000560       0.04207957
H       -5.12962000      -0.72941000      -2.05414000      -0.00004558      -0.00001589      -0.00000705       0.04319049
H       -2.66952000      -0.81020000      -2.31709000       0.00002161      -0.00002910      -0.00012718       0.04951582
H        2.11987000       0.55888000       0.75575000       0.00000592       0.00009985      -0.00005006       0.33496979
H        3.22215000       1.95769000       0.57258000      -0.00014581       0.00003901      -0.00002547       0.33097090
