21
#Cluster:2
O          -2.44349421      2.18086543      0.11877883
C          -3.10304847      1.20209239     -0.07896931
C          -2.57775547     -0.23004844      0.06360036
O          -3.25368115     -1.19430547     -0.17994011
O          -1.32796518     -0.23561055      0.48671211
C          -0.64570000     -1.51040000      0.61380000
O           0.61180000     -1.25450000      1.05050000
S           1.91320000     -0.52630000     -0.24240000
O           2.88550000     -1.41850000      0.29990000
O           0.98940000     -0.63820000     -1.32370000
O           2.87980000      0.61700000     -0.88240000
O           1.47320000      0.85390000      1.01700000
C           0.88846520      2.04107380      0.47204966
H          -4.16077038      1.23521932     -0.38981633
H          -0.66812578     -2.00117547     -0.36601413
H          -1.19124483     -2.11286033      1.35440344
H           3.77157015      0.54558283     -0.53593150
H           0.81730000      0.24920000      1.48690000
H          -0.17466641      1.91211686      0.27225910
H           1.04433421      2.85028722      1.18683826
H           1.41095400      2.26062108     -0.45733327