21
#Cluster:6
O          -2.34646664      2.19842671      1.20233315
C          -3.09066913      1.26557981      1.11400920
C          -2.62374638     -0.19087860      0.99167480
O          -3.34601472     -1.12227162      1.22965149
O          -1.35623334     -0.24028689      0.63279445
C          -0.64570000     -1.51040000      0.61380000
O           0.61180000     -1.25450000      1.05050000
S           1.91320000     -0.52630000     -0.24240000
O           2.88550000     -1.41850000      0.29990000
O           0.98940000     -0.63820000     -1.32370000
O           2.87980000      0.61700000     -0.88240000
O           1.47320000      0.85390000      1.01700000
C           0.83162435      1.96523641      0.38682444
H          -4.18923234      1.36036010      1.15170747
H          -0.66574815     -1.87988856     -0.41702043
H          -1.16635620     -2.20185898      1.28999610
H           3.77056517      0.55190882     -0.53222084
H           0.81730000      0.24920000      1.48690000
H           0.19449553      2.47245278      1.11027137
H           1.61303492      2.63196656      0.02679674
H           0.23128463      1.62209415     -0.45668268