28
ORCA opt transition state final energy: -31311.109531825994 eV
O      -0.135751000000000     -0.834198000000000      2.198157000000000
C       0.553651000000000     -0.878219000000000      1.128047000000000
C       1.272208000000000     -1.970062000000000      0.593017000000000
C       2.379842000000000     -1.653510000000000     -0.144628000000000
C       3.314478000000000     -2.722868000000000     -0.625550000000000
C       2.731902000000000     -0.292744000000000     -0.430256000000000
C       1.933163000000000      0.743418000000000     -0.066883000000000
Cl      2.387940000000000      2.344712000000000     -0.496296000000000
C       0.686057000000000      0.480793000000000      0.612917000000000
C      -0.565517000000000      1.209486000000000      0.146817000000000
O      -0.560124000000000      2.405530000000000     -0.001163000000000
C      -1.813242000000000      0.416704000000000     -0.106661000000000
C      -3.030896000000000      1.013620000000000      0.204080000000000
C      -4.216315000000000      0.348633000000000     -0.058483000000000
C      -4.191386000000000     -0.903028000000000     -0.659687000000000
C      -2.979798000000000     -1.488585000000000     -0.995660000000000
C      -1.791143000000000     -0.833638000000000     -0.711688000000000
H       0.164482000000000      0.475944000000000      1.914460000000000
H       1.054312000000000     -2.982303000000000      0.905692000000000
H       4.295625000000000     -2.604244000000000     -0.162383000000000
H       2.938648000000000     -3.717226000000000     -0.394437000000000
H       3.456002000000000     -2.641003000000000     -1.704630000000000
H       3.648485000000000     -0.092790000000000     -0.968504000000000
H      -3.031121000000000      1.999099000000000      0.650665000000000
H      -5.161448000000000      0.807378000000000      0.200670000000000
H      -5.118410000000000     -1.420133000000000     -0.871220000000000
H      -2.959534000000000     -2.456171000000000     -1.479837000000000
H      -0.847681000000000     -1.291087000000000     -0.982873000000000
