26
ORCA opt transition state final energy: -18645.353554181453 eV
O       1.835862000000000     -2.005788000000000     -0.854056000000000
N       0.751548000000000     -1.923010000000000     -0.092047000000000
O       1.133296000000000     -2.185553000000000      1.129897000000000
N       0.187377000000000     -0.082598000000000      0.681247000000000
C       1.210505000000000      0.691544000000000      0.138596000000000
O       1.179713000000000      1.188939000000000     -0.971190000000000
C       2.436777000000000      0.760027000000000      1.018272000000000
C       3.580269000000000      1.535308000000000      0.389968000000000
C      -1.155213000000000      0.099897000000000      0.313511000000000
C      -1.642700000000000      1.175855000000000     -0.435453000000000
C      -2.997728000000000      1.268761000000000     -0.708037000000000
C      -3.886111000000000      0.300420000000000     -0.260863000000000
C      -3.408015000000000     -0.770079000000000      0.480609000000000
C      -2.058081000000000     -0.866257000000000      0.769158000000000
H       1.500317000000000     -1.864480000000000     -1.755376000000000
H       0.619775000000000     -1.293524000000000      1.492009000000000
H       2.133461000000000      1.189110000000000      1.977444000000000
H       2.730645000000000     -0.271494000000000      1.243828000000000
H       3.282130000000000      2.560521000000000      0.174150000000000
H       3.885002000000000      1.081223000000000     -0.551974000000000
H       4.440833000000000      1.557450000000000      1.058312000000000
H      -0.963500000000000      1.927320000000000     -0.804845000000000
H      -3.362514000000000      2.110917000000000     -1.282358000000000
H      -4.941614000000000      0.382369000000000     -0.484638000000000
H      -4.088413000000000     -1.529998000000000      0.842831000000000
H      -1.689242000000000     -1.693940000000000      1.362814000000000
