11
ORCA opt transition state final energy: -77326.0286606845 eV
C       1.770082000000000      0.795639000000000     -0.247155000000000
O       1.283211000000000      1.858871000000000      0.503278000000000
C       1.305624000000000     -0.518917000000000     -0.014806000000000
O       2.238166000000000     -1.347809000000000     -0.308256000000000
C       0.031153000000000     -0.990210000000000      0.578066000000000
Br     -1.502093000000000     -0.183219000000000     -0.297318000000000
H       2.863122000000000     -0.221218000000000     -0.317760000000000
H       1.943434000000000      0.980017000000000     -1.308824000000000
H       0.664591000000000      2.373357000000000     -0.026613000000000
H      -0.011005000000000     -0.686927000000000      1.621996000000000
H      -0.054945000000000     -2.068594000000000      0.497472000000000
