17
ORCA opt transition state final energy: -34451.88121439485 eV
O      -0.411524000000000     -1.696255000000000     -0.977987000000000
C      -0.600948000000000     -0.782159000000000     -0.096059000000000
O       0.234076000000000     -0.539125000000000      0.867138000000000
C       1.552621000000000     -1.126290000000000      0.823409000000000
C       2.566586000000000     -0.013176000000000      0.815468000000000
Cl      2.504992000000000      0.889257000000000     -0.719657000000000
C      -1.804188000000000     -0.069472000000000     -0.412397000000000
C      -3.100073000000000     -0.767033000000000     -0.032721000000000
Cl     -1.808061000000000      1.631103000000000      0.076208000000000
H      -1.274906000000000     -1.027322000000000     -1.510023000000000
H       1.653617000000000     -1.723082000000000      1.729596000000000
H       1.641828000000000     -1.766069000000000     -0.050966000000000
H       3.567596000000000     -0.424856000000000      0.922279000000000
H       2.374069000000000      0.692872000000000      1.619265000000000
H      -3.334496000000000     -0.634737000000000      1.027852000000000
H      -3.922407000000000     -0.354386000000000     -0.614864000000000
H      -3.038712000000000     -1.835230000000000     -0.246862000000000
