26
ORCA opt transition state final energy: -24284.466534598065 eV
C       2.026909000000000      0.206019000000000      0.539407000000000
C       3.403607000000000     -0.214028000000000      0.057498000000000
O       3.946581000000000     -1.214897000000000      0.423457000000000
O       3.918939000000000      0.682027000000000     -0.784491000000000
C       1.099651000000000      0.848033000000000     -0.326966000000000
C       0.687381000000000     -1.135504000000000     -0.024562000000000
O       0.946376000000000     -1.766415000000000     -1.002321000000000
O      -0.329712000000000     -1.087455000000000      0.829375000000000
C      -1.596434000000000     -0.714030000000000      0.334282000000000
C      -2.550112000000000     -0.495610000000000      1.309822000000000
C      -3.819930000000000     -0.111242000000000      0.916817000000000
C      -4.116133000000000      0.055167000000000     -0.430156000000000
C      -3.137733000000000     -0.167353000000000     -1.384348000000000
C      -1.858085000000000     -0.560727000000000     -1.011692000000000
N       0.208212000000000      1.788604000000000      0.260759000000000
O       0.092582000000000      1.797188000000000      1.484186000000000
O      -0.412739000000000      2.519483000000000     -0.492110000000000
H       1.661325000000000     -1.054356000000000      0.847492000000000
H       1.981011000000000      0.538118000000000      1.577533000000000
H       4.804661000000000      0.371754000000000     -1.030404000000000
H       1.264113000000000      0.975126000000000     -1.381987000000000
H      -2.282123000000000     -0.607979000000000      2.351054000000000
H      -4.576579000000000      0.071659000000000      1.667872000000000
H      -5.107496000000000      0.363752000000000     -0.732831000000000
H      -3.361723000000000     -0.035368000000000     -2.434286000000000
H      -1.096000000000000     -0.743155000000000     -1.755587000000000
