20
ORCA opt transition state final energy: -13560.784967899875 eV
C      -1.626816000000000      1.391186000000000     -0.905036000000000
C      -1.463869000000000      0.391463000000000      0.213550000000000
O      -2.292920000000000     -0.522078000000000      0.305699000000000
C      -0.398594000000000      0.512977000000000      1.184392000000000
C       0.744386000000000      1.323109000000000      1.103700000000000
C       1.602243000000000      1.398823000000000      0.030025000000000
C       1.526499000000000      0.454112000000000     -1.023995000000000
O       1.731323000000000     -1.061308000000000     -0.164600000000000
C       0.647135000000000     -1.512204000000000      0.284937000000000
O      -0.282185000000000     -1.932889000000000     -0.559498000000000
H      -2.601335000000000      1.863286000000000     -0.773785000000000
H      -0.852562000000000      2.153518000000000     -0.921220000000000
H      -1.657711000000000      0.860535000000000     -1.858213000000000
H      -0.720641000000000      0.205940000000000      2.174875000000000
H       1.091348000000000      1.776166000000000      2.028706000000000
H       2.528199000000000      1.945381000000000      0.149141000000000
H       0.586585000000000      0.193361000000000     -1.489846000000000
H       2.357224000000000      0.419040000000000     -1.716930000000000
H       0.595712000000000     -1.840304000000000      1.319646000000000
H      -1.176669000000000     -1.822575000000000     -0.152580000000000
