24
ORCA opt transition state final energy: -18696.779145351193 eV
C       1.451688000000000      2.077595000000000      0.678719000000000
O       1.799749000000000      1.594203000000000     -0.605744000000000
C       2.565285000000000      0.416043000000000     -0.523543000000000
C       1.732516000000000     -0.808675000000000     -0.147531000000000
O       2.139143000000000     -1.657966000000000      0.610598000000000
O       0.565407000000000     -0.868943000000000     -0.752379000000000
C      -1.120918000000000     -1.174943000000000      0.304126000000000
C      -1.572099000000000     -2.364421000000000     -0.444859000000000
O      -1.039929000000000     -0.815825000000000      1.398218000000000
O      -1.443387000000000      0.202744000000000     -0.847169000000000
O      -1.549846000000000      1.391883000000000     -0.086118000000000
C      -2.936291000000000      1.610521000000000      0.108875000000000
H       0.850659000000000      2.971984000000000      0.533921000000000
H       0.863420000000000      1.346293000000000      1.243362000000000
H       2.349577000000000      2.328372000000000      1.254263000000000
H       2.992830000000000      0.240665000000000     -1.512513000000000
H       3.378508000000000      0.510458000000000      0.202164000000000
H      -1.474197000000000     -2.207250000000000     -1.512337000000000
H      -2.610413000000000     -2.557537000000000     -0.173909000000000
H      -0.940379000000000     -3.194081000000000     -0.133193000000000
H      -0.363598000000000      0.075692000000000     -1.018154000000000
H      -2.989804000000000      2.543250000000000      0.666768000000000
H      -3.380588000000000      0.805099000000000      0.697134000000000
H      -3.448913000000000      1.713390000000000     -0.848150000000000
