26
ORCA opt transition state final energy: -85725.47648049478 eV
C       1.434563000000000     -1.936061000000000     -0.497710000000000
C       0.528979000000000     -1.267714000000000      0.361519000000000
C       1.074051000000000     -0.596269000000000      1.455628000000000
C       2.169289000000000      0.927416000000000      0.559239000000000
C       1.117713000000000      1.713805000000000     -0.178250000000000
C       1.707342000000000      2.992860000000000     -0.771116000000000
C       2.948647000000000     -0.033697000000000     -0.069664000000000
C       4.206262000000000     -0.561622000000000      0.551175000000000
O       2.468047000000000     -0.686535000000000     -1.082208000000000
C      -0.773133000000000     -0.902239000000000     -0.212999000000000
O      -1.189568000000000     -1.213688000000000     -1.293568000000000
O      -1.501148000000000     -0.154633000000000      0.684586000000000
Br     -3.115596000000000      0.410831000000000      0.072003000000000
H       2.190775000000000     -2.563200000000000     -0.038785000000000
H       1.040993000000000     -2.323854000000000     -1.426758000000000
H       1.894098000000000     -1.059113000000000      1.991810000000000
H       0.444813000000000      0.038289000000000      2.065358000000000
H       2.625657000000000      1.434108000000000      1.406754000000000
H       0.709673000000000      1.098087000000000     -0.979626000000000
H       0.295769000000000      1.964417000000000      0.495756000000000
H       2.492517000000000      2.757506000000000     -1.490897000000000
H       0.938088000000000      3.570904000000000     -1.283757000000000
H       2.141608000000000      3.626080000000000      0.005154000000000
H       4.061363000000000     -1.604468000000000      0.853323000000000
H       4.515653000000000      0.019817000000000      1.418057000000000
H       5.008185000000000     -0.556886000000000     -0.187307000000000
