29
ORCA opt transition state final energy: -33572.97089425097 eV
O       4.201782000000000     -0.041529000000000     -0.507338000000000
N       3.560849000000000      0.645589000000000     -1.500282000000000
O       2.585880000000000     -0.098631000000000     -1.884338000000000
C       1.480846000000000      1.168453000000000     -0.109651000000000
S       0.220425000000000      1.223928000000000      1.092376000000000
O       0.681600000000000      0.299744000000000      2.171189000000000
C      -0.975522000000000      0.273249000000000      0.105999000000000
C      -2.084121000000000      0.888398000000000     -0.486893000000000
N      -2.421855000000000      2.222208000000000     -0.271509000000000
C      -2.488965000000000      2.784286000000000      1.077211000000000
C      -2.863815000000000      0.133461000000000     -1.375916000000000
C      -2.581091000000000     -1.188490000000000     -1.633589000000000
C      -1.513723000000000     -1.812686000000000     -0.998563000000000
C      -0.713827000000000     -1.077525000000000     -0.142123000000000
C       0.455132000000000     -1.824347000000000      0.436628000000000
O       1.558218000000000     -1.890245000000000     -0.070234000000000
O       0.119913000000000     -2.565393000000000      1.483977000000000
H       4.841414000000000      0.597401000000000     -0.162534000000000
H       2.289349000000000     -0.773354000000000     -1.185497000000000
H       2.224623000000000      0.482919000000000      0.242949000000000
H       1.263614000000000      1.467602000000000     -1.117034000000000
H      -3.214954000000000      2.486244000000000     -0.831468000000000
H      -1.612873000000000      3.385179000000000      1.313418000000000
H      -2.577420000000000      1.998332000000000      1.831138000000000
H      -3.371202000000000      3.419957000000000      1.146511000000000
H      -3.717521000000000      0.605972000000000     -1.848758000000000
H      -3.206155000000000     -1.748814000000000     -2.316308000000000
H      -1.300718000000000     -2.858791000000000     -1.175525000000000
H       0.927185000000000     -3.003648000000000      1.795826000000000
