27
ORCA opt transition state final energy: -16188.56069980305 eV
O      -2.367090000000000      2.014393000000000      0.582096000000000
C      -2.526884000000000      0.860301000000000      0.040203000000000
C      -3.741086000000000      0.263053000000000     -0.372916000000000
C      -3.779623000000000     -1.100995000000000     -0.317273000000000
C      -2.645553000000000     -1.896706000000000      0.025822000000000
C      -1.430034000000000     -1.316097000000000      0.213863000000000
C      -1.291827000000000      0.108788000000000      0.125779000000000
C      -0.096889000000000      0.634574000000000     -0.683234000000000
C       1.254850000000000      0.484308000000000     -0.026441000000000
C       1.416875000000000      0.146994000000000      1.245609000000000
C       2.392886000000000      0.780508000000000     -0.969827000000000
C       3.802784000000000      0.655699000000000     -0.393908000000000
C       4.167265000000000     -0.726800000000000     -0.075869000000000
N       4.453009000000000     -1.813527000000000      0.157465000000000
H      -1.305741000000000      1.239766000000000      0.968434000000000
H      -4.617680000000000      0.866270000000000     -0.564597000000000
H      -4.718957000000000     -1.605311000000000     -0.511689000000000
H      -2.755842000000000     -2.971158000000000      0.074188000000000
H      -0.544161000000000     -1.925570000000000      0.352150000000000
H      -0.064843000000000      0.127517000000000     -1.654754000000000
H      -0.261997000000000      1.694468000000000     -0.899365000000000
H       0.565734000000000     -0.054996000000000      1.881928000000000
H       2.392862000000000      0.045776000000000      1.700161000000000
H       2.272683000000000      1.800864000000000     -1.347097000000000
H       2.305550000000000      0.128724000000000     -1.844003000000000
H       4.529593000000000      1.029138000000000     -1.116262000000000
H       3.909075000000000      1.258829000000000      0.509117000000000
