20
ORCA opt transition state final energy: -26848.92767096222 eV
O       4.469064000000000     -0.013441000000000      0.728782000000000
N       3.745612000000000     -0.255390000000000     -0.359886000000000
O       3.438170000000000     -1.506620000000000     -0.302593000000000
C       1.324335000000000     -0.180862000000000     -0.184904000000000
S      -0.153475000000000      0.706837000000000     -0.045003000000000
O      -0.197571000000000      1.326663000000000      1.257376000000000
O      -0.328556000000000      1.501529000000000     -1.234504000000000
C      -1.440852000000000     -0.534340000000000     -0.053713000000000
C      -2.802756000000000      0.141726000000000      0.091030000000000
C      -3.870214000000000     -0.891823000000000      0.332278000000000
O      -4.831269000000000     -1.056968000000000     -0.367313000000000
H       4.728232000000000      0.917426000000000      0.633577000000000
H       2.454821000000000     -1.564413000000000     -0.598940000000000
H       1.751045000000000     -0.136208000000000     -1.172637000000000
H       1.789418000000000     -0.419232000000000      0.752192000000000
H      -1.356279000000000     -1.083165000000000     -0.991691000000000
H      -1.229953000000000     -1.206462000000000      0.780170000000000
H      -3.050415000000000      0.724479000000000     -0.793810000000000
H      -2.772377000000000      0.806054000000000      0.960608000000000
H      -3.712190000000000     -1.527190000000000      1.229802000000000
