18
ORCA opt transition state final energy: -26487.14529209999 eV
O       3.267414000000000     -0.721855000000000      1.329164000000000
N       2.961951000000000     -0.117502000000000      0.279664000000000
C       1.572396000000000     -0.458744000000000      0.149283000000000
F       1.503065000000000     -1.714083000000000     -0.432062000000000
S       0.695334000000000      0.766061000000000     -0.868644000000000
O       1.049613000000000      2.036011000000000     -0.191628000000000
C      -0.926857000000000      0.253040000000000     -0.313399000000000
C      -1.578533000000000     -0.782983000000000     -0.964871000000000
C      -2.836521000000000     -1.165110000000000     -0.523977000000000
C      -3.431086000000000     -0.498244000000000      0.538986000000000
C      -2.772488000000000      0.550309000000000      1.167576000000000
C      -1.508485000000000      0.932046000000000      0.743545000000000
H       2.089290000000000     -0.944840000000000      1.516360000000000
H      -1.109511000000000     -1.285094000000000     -1.802400000000000
H      -3.357051000000000     -1.975648000000000     -1.016607000000000
H      -4.417442000000000     -0.792114000000000      0.873533000000000
H      -3.244914000000000      1.072570000000000      1.989172000000000
H      -0.968936000000000      1.749269000000000      1.205296000000000
