14
ORCA opt transition state final energy: -161269.59443181063 eV
C      -3.127237000000000     -1.319569000000000      0.261931000000000
S      -2.084113000000000      0.130835000000000      0.203410000000000
O      -2.169461000000000      0.694979000000000      1.513281000000000
O      -2.389946000000000      0.753722000000000     -1.042235000000000
C       0.042394000000000      1.275178000000000      0.043640000000000
C      -0.123433000000000      2.713099000000000      0.112335000000000
O      -0.280319000000000      3.428002000000000     -0.844825000000000
C       0.916347000000000      0.381509000000000     -0.031652000000000
Br     -0.147301000000000     -1.585324000000000     -0.000938000000000
Br      2.720093000000000      0.024651000000000     -0.173344000000000
H      -2.834774000000000     -1.900023000000000      1.131189000000000
H      -2.988777000000000     -1.859309000000000     -0.669536000000000
H      -4.144204000000000     -0.940062000000000      0.357062000000000
H      -0.147318000000000      3.107933000000000      1.144422000000000
