27
ORCA opt transition state final energy: -24752.319575353977 eV
C       2.153998000000000      2.434250000000000      0.341241000000000
O       1.864961000000000      1.292088000000000     -0.473821000000000
C       0.780451000000000      0.538594000000000     -0.062933000000000
N       3.286659000000000     -1.477540000000000     -0.256998000000000
O       4.092739000000000     -0.794067000000000     -0.539009000000000
C      -0.572317000000000      1.126292000000000     -0.297854000000000
O      -0.658661000000000      2.265425000000000     -0.711163000000000
C      -1.797069000000000      0.278074000000000     -0.168840000000000
C      -3.013742000000000      0.924692000000000      0.020257000000000
C      -4.187752000000000      0.193626000000000      0.095995000000000
C      -4.153670000000000     -1.187353000000000     -0.038531000000000
C      -2.943564000000000     -1.835520000000000     -0.244147000000000
C      -1.767478000000000     -1.106119000000000     -0.301573000000000
N       1.017065000000000     -0.146142000000000      1.170192000000000
O       2.209785000000000     -0.445619000000000      1.419426000000000
O       0.106063000000000     -0.491956000000000      1.894883000000000
O       1.800017000000000     -1.356465000000000     -1.473557000000000
H       1.291114000000000      3.095145000000000      0.386041000000000
H       2.984827000000000      2.949198000000000     -0.136058000000000
H       2.453636000000000      2.119468000000000      1.343561000000000
H      -3.021209000000000      2.003151000000000      0.104553000000000
H      -5.130488000000000      0.700402000000000      0.256206000000000
H      -5.070995000000000     -1.759656000000000      0.015123000000000
H      -2.915745000000000     -2.911529000000000     -0.355815000000000
H      -0.828597000000000     -1.621877000000000     -0.457772000000000
H       1.132496000000000     -0.611316000000000     -0.921074000000000
H       2.085955000000000     -0.853947000000000     -2.252231000000000
