18
ORCA opt transition state final energy: -26467.902727657398 eV
O       0.723915000000000      1.743456000000000     -0.563898000000000
S       1.139380000000000      0.375337000000000     -0.432190000000000
O       2.177235000000000     -0.173919000000000     -1.265171000000000
C       1.622635000000000      0.079640000000000      1.270292000000000
O       2.073330000000000     -1.228745000000000      1.428804000000000
C      -0.289368000000000     -0.702392000000000     -0.661266000000000
N      -1.343519000000000     -0.266734000000000      0.218126000000000
C      -2.183763000000000      0.653764000000000     -0.295603000000000
F      -2.815214000000000      1.412189000000000      0.649709000000000
O      -2.546232000000000     -1.666850000000000     -0.227023000000000
H       2.374040000000000      0.849999000000000      1.473914000000000
H       0.746692000000000      0.237530000000000      1.897356000000000
H       2.820255000000000     -1.363550000000000      0.830932000000000
H       0.037640000000000     -1.704814000000000     -0.403198000000000
H      -0.517375000000000     -0.640288000000000     -1.729769000000000
H      -1.860612000000000      1.251089000000000     -1.145619000000000
H      -2.908726000000000     -0.419002000000000     -0.588424000000000
H      -2.988942000000000     -2.015720000000000      0.562135000000000
