17
ORCA opt transition state final energy: -21944.18371964708 eV
C      -1.099447000000000      0.476596000000000      0.307711000000000
Cl     -2.319469000000000     -0.695235000000000     -0.020728000000000
C      -0.116437000000000      0.831053000000000     -0.640798000000000
C       0.421047000000000      2.232475000000000     -0.720938000000000
C       0.710501000000000     -0.074492000000000      0.649250000000000
O       1.525264000000000      0.604266000000000      1.285430000000000
O       0.928926000000000     -1.340410000000000      0.103959000000000
C       2.110454000000000     -1.360499000000000     -0.690523000000000
H      -1.354706000000000      1.174798000000000      1.097901000000000
H      -0.284740000000000     -0.365628000000000      1.307064000000000
H      -0.111813000000000      0.222522000000000     -1.535101000000000
H      -0.241155000000000      2.959201000000000     -0.249315000000000
H       1.381264000000000      2.269036000000000     -0.196666000000000
H       0.562663000000000      2.527833000000000     -1.759089000000000
H       2.241183000000000     -2.389961000000000     -1.012707000000000
H       2.969214000000000     -1.032739000000000     -0.105883000000000
H       2.003001000000000     -0.713336000000000     -1.567219000000000
