15
ORCA opt transition state final energy: -79895.39637603993 eV
O      -2.385840000000000     -1.153387000000000     -1.335157000000000
C      -2.457842000000000     -1.168541000000000     -0.130167000000000
C      -2.494980000000000      0.020132000000000      0.755541000000000
C      -2.187167000000000      1.327899000000000      0.501019000000000
C      -1.155472000000000      1.771355000000000     -0.338299000000000
C      -0.316921000000000      0.939934000000000     -1.050944000000000
C       0.411412000000000     -0.251529000000000      0.426143000000000
Br      2.244669000000000     -0.245894000000000      0.113320000000000
N      -0.321330000000000     -0.797311000000000      1.176990000000000
H      -2.567375000000000     -2.121226000000000      0.415418000000000
H      -3.023142000000000     -0.183172000000000      1.682823000000000
H      -2.576571000000000      2.058007000000000      1.201270000000000
H      -0.864282000000000      2.810597000000000     -0.229806000000000
H      -0.706120000000000      0.051842000000000     -1.528412000000000
H       0.556251000000000      1.378885000000000     -1.515249000000000
