27
ORCA opt transition state final energy: -13012.110184975656 eV
O      -0.719726000000000      2.556300000000000     -0.306880000000000
C       0.556216000000000      2.334145000000000     -0.002368000000000
C       0.868078000000000      0.911747000000000      0.424494000000000
N       2.010625000000000      0.354886000000000      0.161683000000000
C       2.398138000000000     -0.991298000000000      0.568752000000000
C       2.387611000000000     -1.941399000000000     -0.617766000000000
N      -0.916123000000000      0.027063000000000     -0.745456000000000
N      -1.714322000000000     -0.535993000000000      0.288547000000000
C      -1.668336000000000     -1.977777000000000      0.207096000000000
C      -3.077919000000000     -0.031135000000000      0.232547000000000
H      -1.049297000000000      1.095125000000000     -0.713756000000000
H       0.924227000000000      2.883826000000000      0.905811000000000
H       1.306818000000000      2.586955000000000     -0.795730000000000
H       0.230962000000000      0.434709000000000      1.162838000000000
H       2.593714000000000      0.817836000000000     -0.524667000000000
H       1.686644000000000     -1.308116000000000      1.330410000000000
H       3.385316000000000     -0.948869000000000      1.031552000000000
H       2.632353000000000     -2.952856000000000     -0.294296000000000
H       1.403411000000000     -1.946789000000000     -1.085285000000000
H       3.123870000000000     -1.641566000000000     -1.365304000000000
H      -1.219481000000000     -0.320197000000000     -1.660174000000000
H      -2.254600000000000     -2.411296000000000      1.017295000000000
H      -2.071358000000000     -2.354478000000000     -0.749702000000000
H      -0.636292000000000     -2.318968000000000      0.298102000000000
H      -3.047922000000000      1.055388000000000      0.293565000000000
H      -3.585022000000000     -0.324690000000000     -0.701282000000000
H      -3.647145000000000     -0.421243000000000      1.077473000000000
