19
ORCA opt transition state final energy: -10946.322406121222 eV
N      -0.906507000000000      0.942605000000000      0.030282000000000
C      -1.737341000000000     -0.047652000000000      0.687750000000000
C      -2.357735000000000     -1.020670000000000     -0.303475000000000
C       0.383887000000000      1.078086000000000      0.047422000000000
O       0.682004000000000      2.164436000000000     -0.579342000000000
C       1.431612000000000      0.192614000000000      0.668045000000000
O       1.169636000000000     -1.175947000000000      0.483487000000000
C       1.379191000000000     -1.579353000000000     -0.857426000000000
H      -0.624987000000000      2.083156000000000     -0.613377000000000
H      -1.147269000000000     -0.592631000000000      1.426852000000000
H      -2.526078000000000      0.483827000000000      1.224324000000000
H      -3.030897000000000     -1.710827000000000      0.206746000000000
H      -1.584928000000000     -1.604265000000000     -0.804136000000000
H      -2.926486000000000     -0.483056000000000     -1.062775000000000
H       1.447247000000000      0.377913000000000      1.743511000000000
H       2.403580000000000      0.479608000000000      0.255184000000000
H       0.732033000000000     -1.029631000000000     -1.549135000000000
H       2.422268000000000     -1.424022000000000     -1.152410000000000
H       1.143250000000000     -2.639360000000000     -0.913064000000000
