24
ORCA opt transition state final energy: -28618.451909301413 eV
C       1.390059000000000     -0.100657000000000     -1.798676000000000
N       1.978257000000000     -0.618357000000000     -0.569193000000000
C       3.411662000000000     -0.908613000000000     -0.674870000000000
C       1.622583000000000     -0.193950000000000      0.653080000000000
O       2.087050000000000     -0.267348000000000      1.718166000000000
O      -0.158369000000000     -0.354880000000000      0.762629000000000
C      -0.907790000000000     -1.413931000000000      0.152264000000000
C      -2.378090000000000     -1.263141000000000      0.485487000000000
C      -3.039129000000000     -0.022242000000000     -0.070386000000000
O      -4.163013000000000      0.314800000000000      0.164581000000000
O      -2.207154000000000      0.680945000000000     -0.870156000000000
Cl      0.929500000000000      2.113298000000000      0.260027000000000
H       0.359144000000000      0.194653000000000     -1.650013000000000
H       1.933857000000000      0.784891000000000     -2.130007000000000
H       1.449473000000000     -0.883829000000000     -2.555137000000000
H       3.744638000000000     -1.435885000000000      0.214001000000000
H       3.562898000000000     -1.538305000000000     -1.549417000000000
H       3.987435000000000      0.013334000000000     -0.787898000000000
H      -0.518166000000000     -2.336484000000000      0.578680000000000
H      -0.747030000000000     -1.429793000000000     -0.924989000000000
H      -2.529491000000000     -1.247843000000000      1.565283000000000
H      -2.931759000000000     -2.122528000000000      0.101461000000000
H      -2.659539000000000      1.497524000000000     -1.130886000000000
H      -0.358754000000000      0.575979000000000      0.452568000000000
