29
ORCA opt transition state final energy: -22874.194985814087 eV
C      -0.689085000000000      1.067593000000000      1.357635000000000
C      -0.572134000000000     -1.058605000000000      0.958434000000000
C      -1.912296000000000     -1.390967000000000      0.756270000000000
C      -2.606247000000000     -1.067148000000000     -0.387168000000000
C      -4.070162000000000     -1.290686000000000     -0.525405000000000
C       0.431619000000000     -1.091287000000000     -0.137848000000000
O       0.254562000000000     -1.167651000000000     -1.309967000000000
O       1.706604000000000     -1.133214000000000      0.433330000000000
C       2.812801000000000     -0.793144000000000     -0.317999000000000
O       2.838695000000000     -0.064919000000000     -1.248947000000000
O       3.890336000000000     -1.374897000000000      0.217343000000000
C       0.635753000000000      1.572327000000000      1.545812000000000
C       1.292028000000000      2.164835000000000      0.516986000000000
C       0.649834000000000      2.324112000000000     -0.747294000000000
C      -0.629937000000000      1.920534000000000     -0.940194000000000
C      -1.390344000000000      1.349432000000000      0.137850000000000
O      -2.596862000000000      0.991516000000000     -0.005191000000000
H      -1.294964000000000      0.846912000000000      2.225432000000000
H      -0.137635000000000     -1.281063000000000      1.923946000000000
H      -2.489661000000000     -1.640329000000000      1.640624000000000
H      -2.053376000000000     -0.883995000000000     -1.297048000000000
H      -4.254716000000000     -2.181617000000000     -1.131039000000000
H      -4.524899000000000     -0.442864000000000     -1.035792000000000
H      -4.549240000000000     -1.420181000000000      0.444134000000000
H       3.616001000000000     -1.936247000000000      0.953390000000000
H       1.112132000000000      1.457358000000000      2.511778000000000
H       2.305065000000000      2.523180000000000      0.643936000000000
H       1.205433000000000      2.770410000000000     -1.561676000000000
H      -1.129138000000000      2.043096000000000     -1.892730000000000
