16
ORCA opt transition state final energy: -92749.25858961281 eV
O       0.060469000000000      2.066888000000000      0.767411000000000
N       0.516406000000000      0.943782000000000      1.096283000000000
C       1.075914000000000      0.457673000000000     -0.089866000000000
C       0.074911000000000     -0.291148000000000     -1.000647000000000
C      -1.311677000000000      0.312345000000000     -1.008868000000000
O      -1.691670000000000      1.157497000000000     -1.737817000000000
Br     -2.484609000000000     -0.443909000000000      0.349972000000000
S       2.519914000000000     -0.577196000000000      0.300739000000000
C       3.141604000000000     -0.612724000000000     -1.390239000000000
O       3.437678000000000      0.283693000000000      1.072974000000000
H       0.633340000000000      1.888679000000000     -0.325257000000000
H       0.439126000000000     -0.232437000000000     -2.024683000000000
H       0.000887000000000     -1.337022000000000     -0.692902000000000
H       4.146250000000000     -1.024313000000000     -1.313601000000000
H       3.181963000000000      0.402222000000000     -1.782732000000000
H       2.531923000000000     -1.264431000000000     -2.014597000000000
