41
ORCA opt transition state final energy: -97662.50307897996 eV
C       6.823323000000000      0.116035000000000     -0.002820000000000
C       5.382682000000000     -0.307795000000000      0.043601000000000
C       4.413026000000000      0.544677000000000      0.571376000000000
C       3.081048000000000      0.179008000000000      0.596725000000000
C       2.694416000000000     -1.063341000000000      0.095464000000000
N       0.191982000000000     -0.839412000000000      0.275855000000000
C       1.298072000000000     -1.493603000000000      0.126536000000000
O       0.951706000000000     -2.739199000000000      0.016451000000000
C      -0.637199000000000     -2.370897000000000      0.101982000000000
C      -1.256374000000000     -2.840017000000000      1.275478000000000
C      -2.525122000000000     -3.369903000000000      1.201449000000000
C      -3.210831000000000     -3.466850000000000     -0.009362000000000
C      -4.556030000000000     -4.031612000000000     -0.052341000000000
O      -5.235704000000000     -4.159939000000000     -1.046207000000000
C      -2.572551000000000     -3.021741000000000     -1.172815000000000
C      -1.307711000000000     -2.491178000000000     -1.134508000000000
C      -0.176897000000000      0.509518000000000      0.187179000000000
C       0.242255000000000      1.306811000000000     -0.874352000000000
C      -0.175108000000000      2.624152000000000     -0.959135000000000
C      -1.032252000000000      3.129199000000000      0.006174000000000
Br     -1.608550000000000      4.927091000000000     -0.113054000000000
C      -1.479724000000000      2.337114000000000      1.050717000000000
C      -1.048380000000000      1.023601000000000      1.140628000000000
C       3.654156000000000     -1.930236000000000     -0.418839000000000
C       4.983916000000000     -1.547692000000000     -0.447130000000000
H       6.983662000000000      0.835881000000000     -0.807952000000000
H       7.121008000000000      0.596387000000000      0.929240000000000
H       7.480967000000000     -0.733689000000000     -0.178339000000000
H       4.710013000000000      1.506622000000000      0.971352000000000
H       2.343860000000000      0.849935000000000      1.017038000000000
H      -0.724182000000000     -2.775180000000000      2.215376000000000
H      -3.001579000000000     -3.726468000000000      2.108987000000000
H      -4.947205000000000     -4.357046000000000      0.935360000000000
H      -3.099124000000000     -3.109840000000000     -2.115106000000000
H      -0.812604000000000     -2.153104000000000     -2.036087000000000
H       0.896206000000000      0.893241000000000     -1.631701000000000
H       0.151907000000000      3.250954000000000     -1.776869000000000
H      -2.157553000000000      2.742817000000000      1.788426000000000
H      -1.385641000000000      0.386235000000000      1.947272000000000
H       3.348421000000000     -2.898936000000000     -0.790748000000000
H       5.726188000000000     -2.224961000000000     -0.850968000000000
