21
ORCA opt transition state final energy: -14934.095568893877 eV
C      -3.030578000000000      0.481912000000000      0.065996000000000
C      -2.246877000000000     -0.628336000000000     -0.602637000000000
N      -0.815670000000000     -0.633935000000000     -0.183867000000000
N      -0.669728000000000     -0.966574000000000      1.208719000000000
C      -0.089155000000000      0.574054000000000     -0.760136000000000
N       0.978722000000000      2.459897000000000     -0.055016000000000
O       0.296467000000000      1.236169000000000      0.273027000000000
O       1.545794000000000     -0.804780000000000     -1.094336000000000
C       2.388002000000000     -0.922956000000000     -0.148822000000000
O       2.147637000000000     -0.903434000000000      1.066074000000000
H      -2.594455000000000      1.458758000000000     -0.144063000000000
H      -3.090512000000000      0.341103000000000      1.144443000000000
H      -4.048300000000000      0.479417000000000     -0.321559000000000
H      -2.239056000000000     -0.509353000000000     -1.684292000000000
H      -2.637637000000000     -1.609722000000000     -0.342188000000000
H       0.359933000000000     -1.033487000000000      1.339781000000000
H      -0.957553000000000     -0.141929000000000      1.727147000000000
H       1.908472000000000      2.278588000000000      0.320057000000000
H       1.058521000000000      2.422222000000000     -1.072778000000000
H      -0.300874000000000     -1.362431000000000     -0.692436000000000
H       3.441626000000000     -1.046822000000000     -0.467854000000000
