26
ORCA opt transition state final energy: -25154.840475848876 eV
C      -2.775472000000000      0.648811000000000     -0.012934000000000
C      -2.214136000000000     -0.720096000000000      0.206825000000000
O      -2.672266000000000     -1.727680000000000     -0.253182000000000
C      -0.997457000000000     -0.859038000000000      1.153624000000000
C      -0.035966000000000      0.236747000000000      1.195566000000000
C       1.392221000000000      0.059709000000000      1.468967000000000
C       2.162151000000000     -1.077397000000000      0.794473000000000
C       2.469052000000000     -0.814833000000000     -0.679914000000000
C       1.286103000000000     -1.082097000000000     -1.596027000000000
O       0.134481000000000     -0.351493000000000     -1.211921000000000
Cl      0.345796000000000      2.459659000000000     -0.481445000000000
H      -3.036184000000000      1.102697000000000      0.947289000000000
H      -3.660462000000000      0.577981000000000     -0.638785000000000
H      -2.025716000000000      1.294379000000000     -0.478199000000000
H      -1.442991000000000     -0.838006000000000      2.165676000000000
H      -0.550403000000000     -1.833048000000000      0.982553000000000
H      -0.420983000000000      1.234920000000000      1.362317000000000
H       1.363870000000000     -0.119248000000000      2.563080000000000
H       1.891915000000000      1.016763000000000      1.328805000000000
H       3.099755000000000     -1.184814000000000      1.341715000000000
H       1.633898000000000     -2.028627000000000      0.904637000000000
H       3.293958000000000     -1.459349000000000     -0.993747000000000
H       2.803590000000000      0.219093000000000     -0.804686000000000
H       1.549097000000000     -0.854815000000000     -2.633472000000000
H       1.008601000000000     -2.138503000000000     -1.551148000000000
H       0.302166000000000      0.617416000000000     -1.293609000000000
