25
ORCA opt transition state final energy: -13991.899812277907 eV
C      -1.949496000000000     -1.947043000000000     -0.351379000000000
C      -1.337556000000000     -0.686966000000000      0.189548000000000
O      -1.348633000000000     -0.343683000000000      1.348229000000000
N      -1.275154000000000      0.449410000000000     -0.862159000000000
C      -1.529682000000000      1.815137000000000     -0.308061000000000
N      -0.466988000000000      2.338744000000000      0.483220000000000
O       0.470848000000000     -0.994706000000000     -0.492035000000000
C       1.451939000000000     -1.054923000000000      0.498488000000000
N       2.745796000000000     -0.554572000000000      0.087243000000000
C       2.756439000000000      0.851872000000000     -0.263601000000000
H      -1.622099000000000     -2.149957000000000     -1.367992000000000
H      -1.649488000000000     -2.771187000000000      0.290178000000000
H      -3.038087000000000     -1.852692000000000     -0.314150000000000
H      -1.852490000000000      0.243907000000000     -1.672036000000000
H      -2.431679000000000      1.754062000000000      0.298655000000000
H      -1.718207000000000      2.465837000000000     -1.161734000000000
H       0.390367000000000      2.445053000000000     -0.041674000000000
H      -0.301101000000000      1.742669000000000      1.284288000000000
H      -0.194461000000000      0.148639000000000     -1.006869000000000
H       1.137974000000000     -0.481700000000000      1.384863000000000
H       1.593849000000000     -2.096134000000000      0.811083000000000
H       3.074178000000000     -1.107201000000000     -0.695130000000000
H       2.059942000000000      1.122188000000000     -1.072512000000000
H       2.503915000000000      1.442770000000000      0.620433000000000
H       3.758364000000000      1.145467000000000     -0.576918000000000
