20
ORCA opt transition state final energy: -106901.22593193219 eV
C       1.232613000000000      2.035053000000000     -0.706750000000000
C       0.916492000000000      1.198003000000000      0.489691000000000
C       1.684765000000000      0.105636000000000      0.845838000000000
Cl      0.443262000000000     -1.523473000000000     -0.622961000000000
Br      3.395055000000000     -0.182708000000000      0.174166000000000
S      -1.170750000000000      0.286533000000000      0.356948000000000
O      -1.613787000000000      1.553516000000000     -0.170767000000000
O      -1.186646000000000     -0.064846000000000      1.747978000000000
C      -2.303190000000000     -0.849986000000000     -0.496821000000000
C      -3.737347000000000     -0.370807000000000     -0.395972000000000
O      -4.460016000000000     -0.272790000000000     -1.345578000000000
O      -4.112283000000000     -0.123229000000000      0.865523000000000
H       0.419237000000000      2.728372000000000     -0.904850000000000
H       2.148068000000000      2.609981000000000     -0.546007000000000
H       1.383337000000000      1.402670000000000     -1.583138000000000
H       0.449695000000000      1.681034000000000      1.343470000000000
H       1.445938000000000     -0.490210000000000      1.714403000000000
H      -2.157348000000000     -1.819570000000000     -0.027848000000000
H      -2.001253000000000     -0.868719000000000     -1.537356000000000
H      -5.033414000000000      0.176689000000000      0.836980000000000
