7
ORCA opt transition state final energy: -17700.911351796305 eV
O       1.009912000000000      1.114833000000000     -0.219051000000000
C       0.332043000000000      0.235539000000000      0.417403000000000
Cl     -1.370156000000000     -0.038583000000000     -0.052892000000000
O       1.154883000000000     -1.040211000000000     -0.196369000000000
H       1.562195000000000     -0.023204000000000     -0.622526000000000
H       0.390344000000000      0.134263000000000      1.504282000000000
H       1.752918000000000     -1.412087000000000      0.469053000000000
