24
ORCA opt transition state final energy: -154709.4235294087 eV
O      -2.549702000000000      2.914155000000000      0.332019000000000
C      -1.634038000000000      2.161281000000000      0.137365000000000
C      -0.598930000000000      1.865377000000000      1.206396000000000
C       0.166198000000000      0.582361000000000      1.105520000000000
Br      1.365576000000000      1.061730000000000     -1.093663000000000
C      -0.372001000000000     -0.654926000000000      0.749710000000000
O       0.359918000000000     -1.741972000000000      0.720547000000000
C      -1.757413000000000     -0.878409000000000      0.309653000000000
C      -1.980153000000000     -1.663837000000000     -0.822241000000000
C      -3.272164000000000     -1.883780000000000     -1.264634000000000
C      -4.347159000000000     -1.346257000000000     -0.567887000000000
C      -4.130793000000000     -0.589095000000000      0.574083000000000
C      -2.838743000000000     -0.350648000000000      1.011929000000000
Br      3.128447000000000     -0.624109000000000      0.243959000000000
H      -1.478129000000000      1.686846000000000     -0.846068000000000
H       0.125399000000000      2.683805000000000      1.143257000000000
H      -1.079648000000000      1.970792000000000      2.183395000000000
H       1.119810000000000      0.564609000000000      1.613066000000000
H      -1.134265000000000     -2.081637000000000     -1.351516000000000
H      -3.443026000000000     -2.476999000000000     -2.152966000000000
H      -5.357008000000000     -1.521738000000000     -0.914733000000000
H      -4.967519000000000     -0.180080000000000      1.123808000000000
H      -2.674840000000000      0.230349000000000      1.909714000000000
H       1.330544000000000     -1.529729000000000      0.777689000000000
