19
ORCA opt transition state final energy: -82549.91789483209 eV
C       0.825225000000000      1.671147000000000      0.277855000000000
C       1.056411000000000      2.061286000000000     -1.143348000000000
C       1.141372000000000      0.408373000000000      0.825321000000000
Br      2.081381000000000     -0.874795000000000     -0.230501000000000
C      -0.652940000000000      0.502168000000000      0.897299000000000
O      -1.049909000000000      0.674058000000000      2.056787000000000
C      -1.156418000000000     -0.586757000000000     -0.044041000000000
C      -2.576426000000000     -0.253377000000000     -0.436723000000000
O      -2.919839000000000      0.809629000000000     -0.880298000000000
O      -3.413980000000000     -1.287963000000000     -0.273014000000000
H      -0.759558000000000      1.468120000000000      0.171533000000000
H       0.681204000000000      2.465431000000000      1.002949000000000
H       0.849959000000000      1.237939000000000     -1.823890000000000
H       2.116332000000000      2.309874000000000     -1.251383000000000
H       0.459775000000000      2.927158000000000     -1.420344000000000
H       1.393822000000000      0.320520000000000      1.869718000000000
H      -0.572098000000000     -0.635478000000000     -0.962391000000000
H      -1.097940000000000     -1.545241000000000      0.466793000000000
H      -4.289941000000000     -0.987462000000000     -0.559254000000000
