16
ORCA opt transition state final energy: -23961.070320826806 eV
C      -0.690093000000000     -0.330122000000000     -1.111999000000000
C      -1.865613000000000     -0.045876000000000     -0.180156000000000
C      -2.107081000000000     -1.027586000000000      0.925081000000000
O      -2.570205000000000      0.900192000000000     -0.413877000000000
C       0.533306000000000      0.325876000000000     -1.016191000000000
Cl      1.678759000000000     -1.685628000000000      0.015189000000000
C       0.951438000000000      1.240457000000000      0.094608000000000
O       1.787172000000000      2.080317000000000     -0.077126000000000
O       0.244541000000000      1.066747000000000      1.212066000000000
H       0.065851000000000     -1.242471000000000     -0.645675000000000
H      -0.970120000000000     -0.671733000000000     -2.104619000000000
H      -2.369313000000000     -1.993708000000000      0.485422000000000
H      -2.916487000000000     -0.681967000000000      1.562428000000000
H      -1.191083000000000     -1.176248000000000      1.498182000000000
H       1.239344000000000      0.300711000000000     -1.833286000000000
H       0.562004000000000      1.706950000000000      1.866626000000000
