16
ORCA opt transition state final energy: -23169.414222479914 eV
N      -2.688555000000000     -0.742072000000000      0.101321000000000
C      -2.149822000000000      0.530487000000000     -0.283083000000000
O      -0.926980000000000      0.860926000000000      0.352741000000000
S       0.707832000000000     -0.206627000000000     -0.066510000000000
O       0.576140000000000     -0.929270000000000      1.160533000000000
O       0.194270000000000     -0.573669000000000     -1.353539000000000
O       2.344582000000000     -0.391673000000000     -0.337297000000000
N       1.164422000000000      1.549559000000000      0.074249000000000
H      -2.723875000000000     -0.814400000000000      1.110984000000000
H      -2.093075000000000     -1.487249000000000     -0.237684000000000
H      -2.023421000000000      0.531549000000000     -1.367920000000000
H      -2.857018000000000      1.317214000000000     -0.008754000000000
H       2.522744000000000     -1.340395000000000     -0.359056000000000
H       0.060552000000000      1.797559000000000      0.175141000000000
H       1.758650000000000      1.674228000000000      0.888937000000000
H       1.663975000000000      1.815353000000000     -0.769045000000000
