31
ORCA opt transition state final energy: -22798.67736739701 eV
C       3.855941000000000     -1.685720000000000     -0.874056000000000
N       3.254736000000000     -2.044958000000000      0.396664000000000
C       2.532518000000000     -0.964681000000000      1.011687000000000
C       1.210029000000000     -0.633650000000000      0.307697000000000
O       0.765612000000000     -1.363911000000000     -0.550794000000000
C       0.600265000000000      0.634024000000000      0.761960000000000
N       2.202435000000000      1.797942000000000     -0.817117000000000
O       2.834144000000000      2.552053000000000     -0.314789000000000
C      -0.834559000000000      0.732103000000000      1.162265000000000
O      -1.121174000000000      1.409830000000000      2.134994000000000
C      -1.924027000000000      0.073222000000000      0.376731000000000
C      -3.102464000000000     -0.237865000000000      1.052991000000000
C      -4.167630000000000     -0.805187000000000      0.376783000000000
C      -4.072553000000000     -1.041374000000000     -0.989260000000000
C      -2.910285000000000     -0.714835000000000     -1.670590000000000
C      -1.832515000000000     -0.168080000000000     -0.989324000000000
O       0.459950000000000      2.427023000000000     -1.165688000000000
H       4.491793000000000     -0.784980000000000     -0.815594000000000
H       4.469378000000000     -2.509179000000000     -1.236854000000000
H       3.070001000000000     -1.507832000000000     -1.607131000000000
H       3.951085000000000     -2.404094000000000      1.033366000000000
H       2.269490000000000     -1.233916000000000      2.038860000000000
H       3.122548000000000     -0.030132000000000      1.087828000000000
H       1.174977000000000      1.100453000000000      1.563429000000000
H      -3.163993000000000     -0.023437000000000      2.111557000000000
H      -5.074428000000000     -1.058903000000000      0.910447000000000
H      -4.906951000000000     -1.479681000000000     -1.522226000000000
H      -2.836613000000000     -0.893300000000000     -2.735437000000000
H      -0.924755000000000      0.064756000000000     -1.524668000000000
H       0.381713000000000      1.605219000000000     -0.328697000000000
H       0.314122000000000      3.269911000000000     -0.709444000000000
