24
ORCA opt transition state final energy: -14302.429987989928 eV
C      -2.897551000000000     -1.333410000000000     -0.191884000000000
C      -1.926646000000000     -0.767853000000000      0.823635000000000
C      -2.067272000000000      0.550160000000000      1.236652000000000
C      -2.030491000000000      1.635304000000000      0.366659000000000
C      -1.169044000000000      1.689819000000000     -0.729370000000000
C      -0.178741000000000      0.740158000000000     -0.986965000000000
C      -0.245789000000000     -0.618634000000000     -0.706559000000000
C       1.001832000000000     -1.440600000000000     -0.482739000000000
C       2.074060000000000     -0.774074000000000      0.364546000000000
O       2.811109000000000      0.051655000000000     -0.530209000000000
F       3.774972000000000      0.706440000000000      0.285130000000000
H      -3.088160000000000     -0.625265000000000     -0.997785000000000
H      -3.849200000000000     -1.535471000000000      0.306249000000000
H      -2.551415000000000     -2.276669000000000     -0.619635000000000
H      -1.662763000000000     -1.482414000000000      1.602228000000000
H      -2.073150000000000      0.771300000000000      2.301323000000000
H      -2.427208000000000      2.586321000000000      0.705456000000000
H      -1.032531000000000      2.669922000000000     -1.173403000000000
H       0.787331000000000      1.152149000000000     -1.268954000000000
H      -1.037843000000000     -1.180141000000000     -1.162637000000000
H       0.722734000000000     -2.369181000000000      0.019601000000000
H       1.445482000000000     -1.743371000000000     -1.438221000000000
H       1.630109000000000     -0.155552000000000      1.148125000000000
H       2.752793000000000     -1.507452000000000      0.804181000000000
