17
ORCA opt transition state final energy: -12825.449372956098 eV
N       2.620475000000000     -0.706758000000000      0.628320000000000
C       2.026470000000000      0.160807000000000     -0.365369000000000
N       0.661710000000000      0.475736000000000      0.050286000000000
O       0.195698000000000      1.426126000000000     -0.908408000000000
C      -0.182713000000000     -0.687200000000000      0.015712000000000
N      -1.357224000000000     -0.654044000000000      0.756014000000000
O      -1.635493000000000      0.590534000000000      1.119359000000000
O      -2.242855000000000     -0.826352000000000     -1.095876000000000
H       2.866131000000000     -0.188826000000000      1.461718000000000
H       3.450433000000000     -1.156032000000000      0.268475000000000
H       2.517181000000000      1.128109000000000     -0.495006000000000
H       2.037638000000000     -0.356857000000000     -1.333596000000000
H      -0.418462000000000      1.966686000000000     -0.398956000000000
H       0.351952000000000     -1.611066000000000      0.223212000000000
H      -2.487454000000000      0.521476000000000      1.572113000000000
H      -0.803715000000000     -0.829329000000000     -1.033914000000000
H      -3.065711000000000     -1.004660000000000     -1.577376000000000
