16
ORCA opt transition state final energy: -25085.43267700042 eV
N       3.427161000000000     -0.989832000000000     -0.051443000000000
C       2.121199000000000     -0.775210000000000     -0.614552000000000
C       1.382682000000000      0.446417000000000     -0.117830000000000
O       1.804235000000000      1.225879000000000      0.687254000000000
C      -0.020640000000000      0.664916000000000     -0.747492000000000
C      -0.973219000000000      0.814197000000000      0.349822000000000
O      -1.504192000000000      1.440910000000000      1.122728000000000
F      -0.719543000000000     -0.984983000000000      1.048089000000000
Cl     -2.764935000000000     -0.903086000000000     -0.633225000000000
H       3.359012000000000     -1.146767000000000      0.946294000000000
H       4.011506000000000     -0.172928000000000     -0.178940000000000
H       1.470345000000000     -1.632175000000000     -0.415211000000000
H       2.179895000000000     -0.699466000000000     -1.706955000000000
H      -0.030652000000000      1.608365000000000     -1.298028000000000
H      -0.342110000000000     -0.153628000000000     -1.382374000000000
H      -1.616344000000000     -1.201512000000000      0.436384000000000
