18
ORCA opt transition state final energy: -23992.553492179515 eV
C      -2.810989000000000      0.584168000000000     -0.708711000000000
O      -2.278475000000000     -0.693826000000000     -0.363066000000000
C      -1.176068000000000     -0.813277000000000      0.388678000000000
O      -0.824964000000000     -1.890973000000000      0.770616000000000
C      -0.429775000000000      0.445776000000000      0.816148000000000
C       0.930832000000000      0.082395000000000      1.339375000000000
O       1.352366000000000      1.747708000000000      0.186245000000000
C      -0.005427000000000      1.493321000000000     -0.219580000000000
Cl      2.217881000000000     -0.654986000000000     -0.915041000000000
H      -2.806377000000000      1.270202000000000      0.139172000000000
H      -2.272323000000000      1.018491000000000     -1.549512000000000
H      -3.839950000000000      0.402348000000000     -1.003194000000000
H      -1.003666000000000      0.900107000000000      1.633060000000000
H       1.365720000000000      0.674997000000000      2.129045000000000
H       1.272786000000000     -0.931231000000000      1.222012000000000
H      -0.020237000000000      1.087106000000000     -1.229435000000000
H      -0.566981000000000      2.423310000000000     -0.174764000000000
H       1.923808000000000      1.180426000000000     -0.410290000000000
