16
ORCA opt transition state final energy: -15956.144086540196 eV
C       2.045328000000000     -1.542230000000000     -0.087815000000000
O       2.252514000000000     -0.145055000000000     -0.137712000000000
C       1.117267000000000      0.590804000000000      0.216698000000000
O       1.460581000000000      1.932063000000000      0.198466000000000
O       0.077167000000000      0.313558000000000     -0.646116000000000
N      -1.510536000000000     -0.648384000000000      0.155611000000000
O      -1.902966000000000     -1.279208000000000     -0.735558000000000
O      -1.317585000000000     -0.716674000000000      1.294917000000000
O      -2.020645000000000      1.171131000000000     -0.141839000000000
H       1.321336000000000     -1.865958000000000     -0.839141000000000
H       1.698771000000000     -1.852555000000000      0.905472000000000
H       3.005062000000000     -2.012601000000000     -0.286560000000000
H       0.823346000000000      0.358033000000000      1.253681000000000
H       1.871188000000000      2.099420000000000     -0.659620000000000
H      -2.590411000000000      1.194755000000000     -0.922339000000000
H      -0.921557000000000      1.068491000000000     -0.487414000000000
