18
ORCA opt transition state final energy: -14897.48514692542 eV
O      -3.408731000000000     -0.349287000000000     -0.071092000000000
N      -2.367442000000000      0.339145000000000      0.220952000000000
N      -1.404449000000000     -0.435182000000000     -0.054699000000000
C      -0.032623000000000     -0.114003000000000      0.009238000000000
C       0.453480000000000      1.204601000000000     -0.012998000000000
N      -0.397475000000000      2.285115000000000     -0.083646000000000
C       1.838240000000000      1.392366000000000     -0.026883000000000
C       2.697553000000000      0.310896000000000     -0.019920000000000
C       2.221651000000000     -0.990545000000000      0.014020000000000
C       0.854608000000000     -1.197558000000000      0.033385000000000
O       0.407349000000000     -2.479535000000000      0.067588000000000
H      -2.388208000000000     -1.195900000000000     -0.389282000000000
H      -1.323722000000000      2.187139000000000      0.293436000000000
H       0.027810000000000      3.185530000000000      0.051494000000000
H       2.227212000000000      2.402623000000000     -0.045437000000000
H       3.765619000000000      0.485028000000000     -0.031212000000000
H       2.881548000000000     -1.845572000000000      0.034339000000000
H      -0.549698000000000     -2.489359000000000      0.171846000000000
