15
ORCA opt transition state final energy: -46699.15823936869 eV
O       4.102797000000000      0.137652000000000      0.356922000000000
N       3.147616000000000     -0.439497000000000     -0.106692000000000
O       3.053935000000000     -1.632942000000000     -0.294920000000000
C       1.937323000000000      0.401409000000000     -0.462417000000000
C       0.973197000000000      0.298847000000000      0.675844000000000
Cl     -0.489427000000000      2.157402000000000     -0.776224000000000
C       0.181927000000000     -0.799164000000000      0.862297000000000
S      -1.685371000000000      0.206312000000000      0.110592000000000
O      -2.230651000000000      0.854886000000000      1.254914000000000
Cl     -2.961620000000000     -1.509681000000000     -0.078305000000000
H       2.282363000000000      1.415471000000000     -0.617440000000000
H       1.529940000000000     -0.027790000000000     -1.372986000000000
H       1.001633000000000      1.082186000000000      1.421515000000000
H      -0.274527000000000     -0.981211000000000      1.828245000000000
H       0.253434000000000     -1.641159000000000      0.182855000000000
