34
ORCA opt transition state final energy: -22417.82774584527 eV
N       1.137081000000000      0.116125000000000     -0.367207000000000
C       0.299767000000000      0.166072000000000      0.656694000000000
O       0.316626000000000      0.098889000000000      1.852595000000000
C      -1.193242000000000      0.438472000000000     -0.132551000000000
C      -1.622425000000000      1.782651000000000     -0.101462000000000
C      -0.628492000000000      2.898218000000000     -0.016512000000000
C      -2.988377000000000      2.029102000000000     -0.115861000000000
C      -3.891331000000000      0.982278000000000     -0.137661000000000
C      -3.504643000000000     -0.365429000000000     -0.159034000000000
C      -4.564674000000000     -1.430150000000000     -0.186273000000000
C      -2.140827000000000     -0.624047000000000     -0.158813000000000
C      -1.587211000000000     -2.008791000000000     -0.205677000000000
O      -2.254016000000000     -3.012029000000000     -0.183482000000000
C       2.529487000000000     -0.048144000000000     -0.223242000000000
C       3.189903000000000     -0.201896000000000      0.997862000000000
C       4.569181000000000     -0.355620000000000      1.020366000000000
C       5.306905000000000     -0.359764000000000     -0.153123000000000
C       4.650048000000000     -0.207993000000000     -1.367402000000000
C       3.275831000000000     -0.053841000000000     -1.402665000000000
H      -0.254416000000000      0.296276000000000     -0.929886000000000
H      -1.088955000000000      3.854871000000000     -0.256100000000000
H       0.218754000000000      2.725519000000000     -0.680444000000000
H      -0.227782000000000      2.953446000000000      0.999039000000000
H      -3.351224000000000      3.049501000000000     -0.103156000000000
H      -4.951623000000000      1.207990000000000     -0.141727000000000
H      -5.552292000000000     -0.970805000000000     -0.203683000000000
H      -4.491503000000000     -2.081353000000000      0.683402000000000
H      -4.457610000000000     -2.074733000000000     -1.057563000000000
H      -0.485952000000000     -2.063225000000000     -0.270836000000000
H       2.625330000000000     -0.201507000000000      1.918102000000000
H       5.069658000000000     -0.474509000000000      1.973260000000000
H       6.381697000000000     -0.480950000000000     -0.123653000000000
H       5.211594000000000     -0.210369000000000     -2.293117000000000
H       2.754311000000000      0.063764000000000     -2.344238000000000
