20
ORCA opt transition state final energy: -27972.400418763176 eV
O      -3.378680000000000     -0.166485000000000     -0.389191000000000
N      -3.114265000000000      0.575852000000000      0.369674000000000
C      -0.417798000000000      0.607784000000000      1.188267000000000
S      -0.246372000000000     -0.619628000000000      0.026165000000000
O      -1.184329000000000     -1.685900000000000      0.333235000000000
O      -0.351265000000000     -0.012638000000000     -1.301059000000000
C       1.367631000000000     -1.408300000000000      0.040447000000000
C       2.496547000000000     -0.567912000000000     -0.529898000000000
N       2.807572000000000      0.521421000000000      0.388597000000000
F       3.964916000000000      1.145279000000000     -0.149677000000000
O      -2.091638000000000      1.993238000000000     -0.368714000000000
H      -0.591216000000000      0.183364000000000      2.172596000000000
H       0.432368000000000      1.288321000000000      1.152563000000000
H       1.224611000000000     -2.297398000000000     -0.574564000000000
H       1.551102000000000     -1.735255000000000      1.065968000000000
H       3.371873000000000     -1.201195000000000     -0.707591000000000
H       2.182035000000000     -0.129791000000000     -1.475733000000000
H       3.182317000000000      0.120214000000000      1.247314000000000
H      -1.398517000000000      1.616837000000000      0.381255000000000
H      -1.658932000000000      1.604071000000000     -1.155383000000000
