28
ORCA opt transition state final energy: -20152.326789168863 eV
C      -4.948438000000000     -0.457044000000000     -1.233205000000000
C      -3.993596000000000     -0.235076000000000     -0.084093000000000
O      -4.176259000000000      0.638601000000000      0.743478000000000
N      -2.925161000000000     -1.077495000000000     -0.034582000000000
C      -1.880695000000000     -0.931059000000000      0.965129000000000
C      -0.716807000000000     -0.094817000000000      0.488573000000000
C      -0.880105000000000      1.271159000000000      0.264982000000000
C       0.178893000000000      2.042478000000000     -0.187577000000000
C       1.421714000000000      1.470912000000000     -0.424260000000000
C       1.566668000000000      0.112490000000000     -0.209340000000000
N       2.829233000000000     -0.508890000000000     -0.473186000000000
N       3.509945000000000     -0.841928000000000      0.540857000000000
O       4.591452000000000     -1.506920000000000      0.119433000000000
C       0.519039000000000     -0.674600000000000      0.242597000000000
O       4.415466000000000      1.072184000000000     -0.049448000000000
H      -4.929303000000000      0.425322000000000     -1.872039000000000
H      -4.711891000000000     -1.336923000000000     -1.829833000000000
H      -5.955225000000000     -0.551962000000000     -0.830989000000000
H      -2.763789000000000     -1.695029000000000     -0.810586000000000
H      -1.534112000000000     -1.923305000000000      1.256842000000000
H      -2.346559000000000     -0.465726000000000      1.832612000000000
H      -1.845457000000000      1.722265000000000      0.460921000000000
H       0.044087000000000      3.105666000000000     -0.336948000000000
H       2.293685000000000      2.043868000000000     -0.709431000000000
H       5.173490000000000     -1.505664000000000      0.891834000000000
H       0.675659000000000     -1.736083000000000      0.395463000000000
H       3.452670000000000     -0.069359000000000     -1.188146000000000
H       5.103906000000000      1.725725000000000      0.121062000000000
