24
ORCA opt transition state final energy: -91228.63725215914 eV
O       3.598469000000000     -1.829625000000000     -0.342907000000000
N       2.600103000000000     -2.267295000000000     -0.259319000000000
C       0.516884000000000      0.304488000000000      0.144475000000000
Br      2.141225000000000      1.327899000000000     -0.045270000000000
C       0.606788000000000     -0.660662000000000      1.241377000000000
O       1.645690000000000     -1.251656000000000      1.510204000000000
O      -0.484178000000000     -0.997371000000000      1.944197000000000
C      -0.689039000000000      1.095518000000000     -0.163028000000000
O      -0.660962000000000      2.273130000000000     -0.452443000000000
C      -2.013792000000000      0.374022000000000     -0.184068000000000
C      -3.144992000000000      1.080527000000000      0.220272000000000
C      -4.391066000000000      0.477133000000000      0.188951000000000
C      -4.518545000000000     -0.828289000000000     -0.268338000000000
C      -3.398942000000000     -1.530415000000000     -0.690138000000000
C      -2.146950000000000     -0.935570000000000     -0.642362000000000
O       1.375095000000000     -1.497796000000000     -1.522099000000000
H      -1.256746000000000     -0.486162000000000      1.662878000000000
H      -3.026850000000000      2.105256000000000      0.547322000000000
H      -5.265112000000000      1.026044000000000      0.513955000000000
H      -5.493441000000000     -1.297362000000000     -0.299716000000000
H      -3.499355000000000     -2.542595000000000     -1.059086000000000
H      -1.277128000000000     -1.487056000000000     -0.977536000000000
H       0.845492000000000     -0.688348000000000     -0.878060000000000
H       1.876551000000000     -0.985076000000000     -2.174244000000000
