22
ORCA opt transition state final energy: -93416.87302443366 eV
C      -3.647525000000000     -0.637971000000000      0.998892000000000
C      -3.011508000000000      0.327709000000000      0.042586000000000
O      -3.339632000000000      0.437101000000000     -1.111416000000000
C      -1.919597000000000      1.231702000000000      0.605784000000000
C      -0.766570000000000      1.379922000000000     -0.320037000000000
Br     -0.190219000000000     -1.297492000000000     -0.153195000000000
C       0.436913000000000      1.904224000000000      0.075887000000000
S       2.242987000000000      0.342972000000000      0.012806000000000
C       2.751399000000000     -1.292469000000000      0.555706000000000
O       2.459959000000000      0.457734000000000     -1.393141000000000
O       2.847775000000000      1.209845000000000      0.983636000000000
H      -2.883135000000000     -1.331326000000000      1.355444000000000
H      -4.035585000000000     -0.098848000000000      1.866418000000000
H      -4.447408000000000     -1.182638000000000      0.505170000000000
H      -2.375809000000000      2.227190000000000      0.707656000000000
H      -1.586594000000000      0.925986000000000      1.597465000000000
H      -0.973591000000000      1.211550000000000     -1.369868000000000
H       0.569412000000000      2.208626000000000      1.105544000000000
H       1.062067000000000      2.382507000000000     -0.665483000000000
H       2.417991000000000     -1.986685000000000     -0.206539000000000
H       3.835980000000000     -1.215714000000000      0.647327000000000
H       2.274237000000000     -1.476693000000000      1.511357000000000
