26
ORCA opt transition state final energy: -18864.296091809567 eV
C       2.689830000000000     -0.087049000000000      0.705355000000000
N       3.914697000000000     -0.450557000000000      0.072167000000000
C       4.767327000000000      0.700448000000000     -0.214038000000000
C       1.575248000000000     -0.927939000000000      0.612338000000000
F       1.600646000000000     -1.953667000000000     -0.188148000000000
O       0.666792000000000      0.515813000000000     -0.719006000000000
C      -0.377430000000000      1.230225000000000     -0.392771000000000
O      -0.350661000000000      2.431031000000000     -0.195464000000000
C      -1.655053000000000      0.444573000000000     -0.217160000000000
C      -2.753277000000000      1.072095000000000      0.361036000000000
C      -3.934541000000000      0.373703000000000      0.552178000000000
C      -4.028592000000000     -0.955213000000000      0.158423000000000
C      -2.939517000000000     -1.583012000000000     -0.428914000000000
C      -1.754299000000000     -0.885072000000000     -0.614482000000000
H       1.964079000000000      0.665777000000000      0.030280000000000
H       2.789414000000000      0.410632000000000      1.667914000000000
H       3.736265000000000     -0.977819000000000     -0.772479000000000
H       5.046113000000000      1.182447000000000      0.723483000000000
H       4.288954000000000      1.448038000000000     -0.856263000000000
H       5.680496000000000      0.352624000000000     -0.692605000000000
H       0.698315000000000     -0.867826000000000      1.241721000000000
H      -2.656337000000000      2.110197000000000      0.649689000000000
H      -4.785819000000000      0.865069000000000      1.005750000000000
H      -4.953107000000000     -1.499377000000000      0.304297000000000
H      -3.015503000000000     -2.614520000000000     -0.748761000000000
H      -0.905881000000000     -1.359951000000000     -1.089632000000000
