17
ORCA opt transition state final energy: -14625.12698431617 eV
O       1.919413000000000     -1.199844000000000      0.635309000000000
C       0.872067000000000     -0.645057000000000      0.098534000000000
F       0.411715000000000     -1.286547000000000     -1.088998000000000
C      -0.362159000000000     -0.413954000000000      0.954335000000000
C      -1.473331000000000      0.237871000000000      0.160376000000000
C      -2.728411000000000     -0.543008000000000     -0.062597000000000
O      -1.323436000000000      1.356734000000000     -0.296683000000000
N       1.553644000000000      0.625143000000000     -0.436791000000000
O       1.291843000000000      1.825638000000000      0.219783000000000
H       2.430254000000000     -0.094924000000000      0.062883000000000
H      -0.080538000000000      0.230867000000000      1.787139000000000
H      -0.651699000000000     -1.387103000000000      1.346855000000000
H      -2.469525000000000     -1.465908000000000     -0.586739000000000
H      -3.443205000000000      0.035038000000000     -0.641229000000000
H      -3.159155000000000     -0.831810000000000      0.898354000000000
H       1.448423000000000      0.736733000000000     -1.445119000000000
H       0.329851000000000      1.966870000000000      0.067458000000000
