27
ORCA opt transition state final energy: -13011.369841830594 eV
N      -0.864787000000000     -0.699047000000000      1.359905000000000
C      -1.915529000000000      0.140503000000000      0.815916000000000
N      -2.863830000000000     -0.480984000000000     -0.095402000000000
C      -2.354408000000000     -1.660178000000000     -0.797518000000000
C      -1.032743000000000      1.135198000000000      0.184298000000000
C      -1.061794000000000      1.507018000000000     -1.241515000000000
O       0.901357000000000      0.052557000000000     -0.206665000000000
C       1.975384000000000      0.665242000000000      0.474038000000000
N       3.167172000000000     -0.133515000000000      0.557030000000000
C       3.704810000000000     -0.514095000000000     -0.742652000000000
H       0.305643000000000     -0.480242000000000      0.509949000000000
H      -0.798429000000000     -0.557520000000000      2.362478000000000
H      -2.491146000000000      0.652756000000000      1.596145000000000
H      -3.688130000000000     -0.744738000000000      0.426751000000000
H      -2.085011000000000     -2.480010000000000     -0.128891000000000
H      -1.457909000000000     -1.404919000000000     -1.362729000000000
H      -3.113287000000000     -1.996140000000000     -1.504447000000000
H      -0.556252000000000      1.816547000000000      0.878321000000000
H      -0.187179000000000      2.071612000000000     -1.549340000000000
H      -1.212180000000000      0.649312000000000     -1.889721000000000
H      -1.960628000000000      2.131834000000000     -1.343914000000000
H       1.669856000000000      0.918101000000000      1.498099000000000
H       2.227386000000000      1.590300000000000     -0.055970000000000
H       2.981259000000000     -0.958841000000000      1.113458000000000
H       3.990012000000000      0.389454000000000     -1.285764000000000
H       4.604778000000000     -1.111945000000000     -0.600979000000000
H       2.999414000000000     -1.074660000000000     -1.364180000000000
