24
ORCA opt transition state final energy: -28496.11475485483 eV
C       2.108774000000000      1.696708000000000      0.804394000000000
C       2.647557000000000      0.934518000000000     -0.409664000000000
C       2.640958000000000     -0.555845000000000     -0.157155000000000
O       3.657166000000000     -1.197697000000000     -0.055423000000000
C       1.296346000000000     -1.236320000000000      0.055860000000000
O       0.254254000000000     -0.593890000000000     -0.629283000000000
S      -1.524692000000000     -0.591416000000000      0.165456000000000
O      -1.825277000000000     -1.830826000000000     -0.482388000000000
O      -1.015191000000000     -0.317826000000000      1.472660000000000
O      -3.037178000000000     -0.003731000000000      0.354173000000000
O      -1.274156000000000      0.914413000000000     -0.940710000000000
C      -1.531188000000000      2.192438000000000     -0.316965000000000
H       1.112073000000000      1.352354000000000      1.085154000000000
H       2.759458000000000      1.550428000000000      1.666927000000000
H       2.061708000000000      2.766675000000000      0.600458000000000
H       3.674841000000000      1.221995000000000     -0.628204000000000
H       2.041449000000000      1.146756000000000     -1.294181000000000
H       1.388802000000000     -2.275573000000000     -0.265713000000000
H       1.110567000000000     -1.227076000000000      1.136574000000000
H      -3.603278000000000     -0.515199000000000     -0.239413000000000
H      -0.252760000000000      0.630069000000000     -0.993155000000000
H      -0.967862000000000      2.930755000000000     -0.883006000000000
H      -2.595032000000000      2.385651000000000     -0.382019000000000
H      -1.210181000000000      2.175928000000000      0.722954000000000
