14
ORCA opt transition state final energy: -26051.654307018205 eV
C       1.538618000000000     -0.950905000000000      1.347307000000000
S       1.680996000000000      0.257444000000000      0.023265000000000
O       1.961588000000000     -0.488673000000000     -1.224750000000000
C      -0.136470000000000      0.625733000000000     -0.052524000000000
F      -0.529358000000000      1.110015000000000      1.168426000000000
F      -0.266044000000000      1.642106000000000     -0.945718000000000
N      -2.296744000000000     -0.113250000000000     -0.489802000000000
O      -2.842723000000000     -0.101451000000000      0.470756000000000
O      -1.181420000000000     -1.722581000000000     -0.472413000000000
H       2.539672000000000     -1.350751000000000      1.497005000000000
H       1.196749000000000     -0.454614000000000      2.254271000000000
H       0.857026000000000     -1.743777000000000      1.043395000000000
H      -0.597318000000000     -0.655640000000000     -0.363321000000000
H      -1.051512000000000     -2.036827000000000     -1.377196000000000
