14
ORCA opt transition state final energy: -21554.37070200663 eV
F       2.822065000000000     -0.179405000000000     -0.883712000000000
C       1.861251000000000     -0.190132000000000      0.070207000000000
C       0.986876000000000     -1.283069000000000      0.050056000000000
C      -0.155327000000000     -1.259707000000000      0.793607000000000
C      -1.162999000000000      0.588834000000000     -0.027728000000000
Cl     -2.710009000000000     -0.002923000000000     -0.292456000000000
C      -0.377513000000000      1.533946000000000     -0.053019000000000
C       1.647865000000000      0.949940000000000      0.777411000000000
H       1.123062000000000     -2.016030000000000     -0.735163000000000
H      -0.896541000000000     -2.036622000000000      0.667256000000000
H      -0.218887000000000     -0.700809000000000      1.716024000000000
H      -0.046403000000000      2.530384000000000     -0.234380000000000
H       1.105217000000000      0.914921000000000      1.707447000000000
H       2.298742000000000      1.798671000000000      0.617389000000000
