22
ORCA opt transition state final energy: -90829.52592313765 eV
C      -0.709870000000000     -2.504525000000000      0.147596000000000
N      -1.726480000000000     -1.543835000000000     -0.261156000000000
C      -3.090775000000000     -1.893520000000000      0.110695000000000
C      -1.463832000000000     -0.326305000000000     -0.653066000000000
C      -1.684076000000000      1.276362000000000      1.170310000000000
C      -1.936216000000000      2.295516000000000      0.204071000000000
O      -2.761980000000000      2.224737000000000     -0.711149000000000
C      -0.099605000000000      0.124563000000000     -1.012846000000000
S       0.689080000000000      0.472630000000000      0.578494000000000
Br      2.796113000000000     -0.274738000000000      0.005091000000000
H      -1.026316000000000     -3.499737000000000     -0.161144000000000
H       0.252744000000000     -2.275518000000000     -0.297004000000000
H      -0.601008000000000     -2.477957000000000      1.233528000000000
H      -3.772982000000000     -1.123587000000000     -0.239561000000000
H      -3.357252000000000     -2.851598000000000     -0.333642000000000
H      -3.166670000000000     -1.972787000000000      1.197374000000000
H      -2.306985000000000      0.301088000000000     -0.932100000000000
H      -2.513555000000000      0.610268000000000      1.392365000000000
H      -1.125987000000000      1.581642000000000      2.047156000000000
H      -1.264994000000000      3.174995000000000      0.249487000000000
H      -0.162684000000000      1.026812000000000     -1.616730000000000
H       0.474000000000000     -0.631558000000000     -1.546069000000000
