25
ORCA opt transition state final energy: -14093.668406626162 eV
C      -0.647912000000000      1.848107000000000     -0.482402000000000
C      -1.019676000000000      0.461665000000000     -0.906123000000000
O      -1.306254000000000      0.110730000000000     -2.013694000000000
N      -1.530811000000000     -0.494705000000000      0.240097000000000
C      -1.718919000000000      0.113119000000000      1.566543000000000
C      -2.671038000000000     -1.318688000000000     -0.183900000000000
O       0.746542000000000     -0.501686000000000     -0.424995000000000
O       1.356461000000000      0.028794000000000      0.767463000000000
C       2.669810000000000      0.416857000000000      0.416176000000000
C       3.557374000000000     -0.765158000000000      0.082107000000000
H      -0.223313000000000      2.334857000000000     -1.356168000000000
H      -1.542456000000000      2.396108000000000     -0.176991000000000
H       0.077117000000000      1.841142000000000      0.326680000000000
H      -2.511185000000000      0.860455000000000      1.529234000000000
H      -1.998871000000000     -0.667381000000000      2.272066000000000
H      -0.784282000000000      0.561391000000000      1.887351000000000
H      -2.796504000000000     -2.134347000000000      0.525438000000000
H      -3.576046000000000     -0.711808000000000     -0.208461000000000
H      -2.472405000000000     -1.707809000000000     -1.176149000000000
H      -0.568780000000000     -0.998416000000000      0.199577000000000
H       2.623343000000000      1.115498000000000     -0.427020000000000
H       3.042361000000000      0.953704000000000      1.293593000000000
H       4.564625000000000     -0.425001000000000     -0.165960000000000
H       3.147068000000000     -1.304270000000000     -0.769317000000000
H       3.619894000000000     -1.446509000000000      0.931742000000000
