17
ORCA opt transition state final energy: -37940.00066784943 eV
O      -0.373172000000000      0.757426000000000      1.454288000000000
S       0.022715000000000      0.073371000000000      0.281602000000000
O       0.188355000000000      0.567391000000000     -1.042197000000000
O       2.067709000000000      0.754997000000000      0.728062000000000
C       2.893016000000000      0.800163000000000     -0.309256000000000
F       3.096889000000000     -0.559866000000000     -0.846933000000000
O      -1.163933000000000     -1.069069000000000      0.076101000000000
C      -2.239221000000000     -0.757808000000000     -0.769859000000000
Cl     -3.410063000000000      0.349756000000000     -0.011840000000000
N       1.060268000000000     -1.319873000000000      0.734816000000000
H       2.502095000000000      1.345495000000000     -1.172646000000000
H       3.904703000000000      1.118079000000000     -0.042176000000000
H      -1.893194000000000     -0.291073000000000     -1.686566000000000
H      -2.751927000000000     -1.694036000000000     -0.959895000000000
H       1.824934000000000     -0.740621000000000      1.206743000000000
H       0.527489000000000     -2.014502000000000      1.252491000000000
H       1.493807000000000     -1.686031000000000     -0.117376000000000
