21
ORCA opt transition state final energy: -39933.481646303815 eV
C       2.351027000000000     -1.901309000000000     -0.700642000000000
C       1.490668000000000     -0.643002000000000     -0.737720000000000
O       0.197278000000000     -0.965034000000000     -0.350549000000000
S      -1.220648000000000      0.354822000000000     -0.669024000000000
O      -0.251545000000000      1.411296000000000     -0.737447000000000
O      -1.789667000000000     -0.473436000000000     -1.676276000000000
O      -2.543372000000000      1.212366000000000     -0.266657000000000
C       2.169794000000000      0.411567000000000      0.134120000000000
O       2.994470000000000      1.178866000000000     -0.203034000000000
Cl      1.689378000000000      0.303797000000000      1.880227000000000
O      -1.418309000000000     -0.402706000000000      1.054247000000000
C      -2.558752000000000     -1.286653000000000      1.182435000000000
H       2.378236000000000     -2.309066000000000      0.310113000000000
H       3.367757000000000     -1.680358000000000     -1.025114000000000
H       1.914174000000000     -2.642450000000000     -1.367336000000000
H       1.498621000000000     -0.211054000000000     -1.742154000000000
H      -2.236139000000000      2.022629000000000      0.163137000000000
H      -0.526838000000000     -0.913640000000000      0.919261000000000
H      -2.515554000000000     -1.701533000000000      2.186058000000000
H      -3.449930000000000     -0.683119000000000      1.052172000000000
H      -2.507176000000000     -2.068165000000000      0.427582000000000
