22
ORCA opt transition state final energy: -14715.349597457664 eV
N       1.218484000000000     -1.246489000000000     -0.542462000000000
C       2.247130000000000     -0.719804000000000      0.243645000000000
F       3.455690000000000     -0.480541000000000     -0.444214000000000
C       1.687833000000000      0.588588000000000      0.677423000000000
C       1.717680000000000      1.756067000000000     -0.219465000000000
O      -0.383424000000000      0.062944000000000      0.867056000000000
C      -1.308993000000000      0.777227000000000      0.082854000000000
C      -2.654807000000000      0.071994000000000     -0.075745000000000
C      -2.712099000000000     -1.392082000000000      0.252763000000000
O      -3.599080000000000      0.703043000000000     -0.480333000000000
H       0.048506000000000     -0.697514000000000      0.279033000000000
H       1.175218000000000     -0.686816000000000     -1.396234000000000
H       2.483269000000000     -1.368452000000000      1.088229000000000
H       1.515432000000000      0.775213000000000      1.727681000000000
H       2.619429000000000      2.313153000000000      0.064797000000000
H       1.816499000000000      1.481816000000000     -1.266438000000000
H       0.871045000000000      2.424073000000000     -0.071206000000000
H      -0.928437000000000      0.940291000000000     -0.936223000000000
H      -1.498673000000000      1.752997000000000      0.532469000000000
H      -2.471313000000000     -1.539929000000000      1.306633000000000
H      -1.955463000000000     -1.936632000000000     -0.317463000000000
H      -3.703928000000000     -1.775616000000000      0.030687000000000
