20
ORCA opt transition state final energy: -12989.906119780984 eV
O      -0.380142000000000     -0.919137000000000      1.139346000000000
C      -0.062759000000000     -0.141638000000000      0.291479000000000
O      -0.846489000000000      0.343514000000000     -0.730583000000000
O      -2.451126000000000      0.691396000000000      0.120035000000000
C      -3.236007000000000     -0.415612000000000     -0.137105000000000
C       1.236708000000000      0.430196000000000     -0.089961000000000
C       1.447056000000000      1.908192000000000      0.077332000000000
N       2.336395000000000     -0.356381000000000     -0.095712000000000
C       2.260366000000000     -1.799721000000000     -0.245803000000000
H       0.155847000000000      0.559039000000000     -1.296221000000000
H      -3.475412000000000     -0.533795000000000     -1.203966000000000
H      -2.793791000000000     -1.347559000000000      0.240021000000000
H      -4.186538000000000     -0.270433000000000      0.397481000000000
H       0.517765000000000      2.450178000000000     -0.078587000000000
H       1.793235000000000      2.105640000000000      1.095983000000000
H       2.200849000000000      2.280325000000000     -0.618296000000000
H       3.188745000000000      0.084620000000000     -0.400340000000000
H       3.264842000000000     -2.210371000000000     -0.185692000000000
H       1.819613000000000     -2.077644000000000     -1.208626000000000
H       1.654922000000000     -2.224199000000000      0.551316000000000
