20
ORCA opt transition state final energy: -26849.449076266224 eV
C      -1.235710000000000      0.565466000000000      1.898143000000000
O      -1.283688000000000      1.326221000000000      0.693615000000000
C      -0.499829000000000      0.823015000000000     -0.335970000000000
N      -2.214242000000000     -0.241279000000000     -1.364867000000000
O      -3.044701000000000     -0.054021000000000     -0.653338000000000
S       1.319322000000000      0.948323000000000      0.024956000000000
O       1.859325000000000      1.933730000000000     -0.943340000000000
C       1.828471000000000     -0.665813000000000     -0.631095000000000
C       1.486525000000000     -1.810543000000000      0.283397000000000
O       1.197455000000000     -1.669851000000000      1.444462000000000
O      -0.951924000000000     -1.743660000000000     -0.747963000000000
H      -0.224037000000000      0.535483000000000      2.304858000000000
H      -1.571021000000000     -0.462377000000000      1.735456000000000
H      -1.902514000000000      1.057810000000000      2.600909000000000
H      -0.563190000000000      1.518467000000000     -1.173441000000000
H       2.915948000000000     -0.591069000000000     -0.720083000000000
H       1.418090000000000     -0.814375000000000     -1.630105000000000
H       1.559417000000000     -2.813057000000000     -0.172015000000000
H      -0.665351000000000     -0.519654000000000     -0.510200000000000
H      -1.306007000000000     -2.160366000000000      0.048480000000000
