22
ORCA opt transition state final energy: -85660.87751999625 eV
C      -0.861828000000000     -0.886476000000000     -1.106946000000000
C      -2.060004000000000     -1.565534000000000      0.570043000000000
C      -2.980038000000000     -2.523336000000000     -0.092892000000000
O      -1.620838000000000     -1.387770000000000      1.620906000000000
C       0.542929000000000     -0.996400000000000     -0.975554000000000
C       1.207816000000000     -0.049835000000000     -0.263188000000000
Br      3.078518000000000     -0.180095000000000      0.000724000000000
C       0.534924000000000      1.080780000000000      0.254535000000000
C      -0.812527000000000      1.233417000000000      0.101872000000000
O      -1.411277000000000      2.299370000000000      0.691077000000000
C      -2.390219000000000      2.984314000000000     -0.092434000000000
C      -1.588919000000000      0.198395000000000     -0.531199000000000
O      -2.865342000000000      0.110800000000000     -0.369338000000000
H      -1.372713000000000     -1.529984000000000     -1.808451000000000
H      -3.830491000000000     -2.640485000000000      0.579290000000000
H      -3.311428000000000     -2.154746000000000     -1.051180000000000
H      -2.450762000000000     -3.472543000000000     -0.182442000000000
H       1.070353000000000     -1.822688000000000     -1.431487000000000
H       1.080736000000000      1.835335000000000      0.805133000000000
H      -3.243744000000000      2.343079000000000     -0.301261000000000
H      -2.696692000000000      3.841913000000000      0.500660000000000
H      -1.946175000000000      3.333470000000000     -1.028490000000000
