24
ORCA opt transition state final energy: -25801.781265429137 eV
C       2.317302000000000     -0.292138000000000      1.053414000000000
N       1.880222000000000      0.444246000000000     -0.128932000000000
C       0.509340000000000      0.628097000000000     -0.518197000000000
N      -0.104117000000000      1.884258000000000     -0.268490000000000
C       0.016800000000000      2.428887000000000      1.083207000000000
S      -0.495983000000000     -0.741644000000000     -0.082491000000000
O      -0.945325000000000     -0.785128000000000      1.297105000000000
O       0.263067000000000     -1.911093000000000     -0.562370000000000
C      -1.979442000000000     -0.583124000000000     -1.101565000000000
N      -2.952395000000000      0.342181000000000     -0.600903000000000
O       2.318573000000000     -0.422331000000000     -1.362334000000000
H       1.905797000000000     -1.299512000000000      1.137765000000000
H       1.966302000000000      0.297152000000000      1.899904000000000
H       3.405233000000000     -0.318513000000000      1.070523000000000
H       0.154336000000000      2.563961000000000     -0.968657000000000
H       1.051319000000000      2.660100000000000      1.362998000000000
H      -0.570330000000000      3.344356000000000      1.159998000000000
H      -0.386012000000000      1.705863000000000      1.792728000000000
H      -2.369626000000000     -1.602929000000000     -1.124913000000000
H      -1.639038000000000     -0.312437000000000     -2.099869000000000
H      -3.231531000000000      0.075100000000000      0.335693000000000
H      -2.540629000000000      1.267103000000000     -0.546186000000000
H       1.421097000000000      0.039272000000000     -1.778405000000000
H       1.889120000000000     -1.297426000000000     -1.140514000000000
