28
ORCA opt transition state final energy: -15626.719677697178 eV
C       1.537188000000000     -0.309956000000000      1.321208000000000
C       2.844473000000000      0.041184000000000      0.645194000000000
N       3.250433000000000     -0.991931000000000     -0.291846000000000
C       2.508900000000000     -0.971821000000000     -1.541534000000000
C       0.644243000000000      0.677631000000000      1.753177000000000
N      -0.816230000000000      0.284901000000000      0.275513000000000
C      -1.929068000000000     -0.500600000000000      0.772865000000000
C      -2.583739000000000     -1.356363000000000     -0.297158000000000
O      -3.585105000000000     -1.988574000000000     -0.108863000000000
C      -1.197022000000000      1.229055000000000     -0.657975000000000
C      -0.090326000000000      2.116069000000000     -1.182135000000000
O      -2.346663000000000      1.367995000000000     -1.037584000000000
H       0.513869000000000     -0.305487000000000      0.469700000000000
H       1.517395000000000     -1.261284000000000      1.843419000000000
H       3.630822000000000      0.128951000000000      1.398998000000000
H       2.749097000000000      1.032956000000000      0.168885000000000
H       4.240324000000000     -0.912033000000000     -0.477669000000000
H       1.460547000000000     -1.213760000000000     -1.357751000000000
H       2.905027000000000     -1.731570000000000     -2.213805000000000
H       2.543769000000000      0.000390000000000     -2.056428000000000
H      -0.079628000000000      0.493287000000000      2.534665000000000
H       0.786900000000000      1.716051000000000      1.481354000000000
H      -2.715696000000000      0.112541000000000      1.220634000000000
H      -1.560220000000000     -1.190612000000000      1.541511000000000
H      -2.048572000000000     -1.390817000000000     -1.267496000000000
H       0.890330000000000      1.650301000000000     -1.097892000000000
H      -0.086339000000000      3.050700000000000     -0.616860000000000
H      -0.294948000000000      2.361506000000000     -2.221568000000000
