19
ORCA opt transition state final energy: -12522.602206359019 eV
C       2.328486000000000     -0.830350000000000      0.123329000000000
O       1.076835000000000     -0.869114000000000     -0.569684000000000
C      -0.037876000000000     -0.473204000000000      0.120798000000000
C      -1.212337000000000     -1.292379000000000     -0.433645000000000
O      -2.260117000000000     -0.868045000000000     -0.830610000000000
O      -0.002858000000000     -0.487392000000000      1.423722000000000
C      -1.088674000000000      1.222663000000000      0.882804000000000
C      -0.440229000000000      1.253628000000000     -0.353167000000000
C       0.827818000000000      2.047668000000000     -0.527353000000000
H       3.024372000000000     -0.238044000000000     -0.468777000000000
H       2.202516000000000     -0.408113000000000      1.117215000000000
H       2.701263000000000     -1.849179000000000      0.214960000000000
H      -1.009697000000000     -2.375451000000000     -0.331924000000000
H      -2.106435000000000      0.865779000000000      0.956616000000000
H      -0.662635000000000      1.668265000000000      1.769326000000000
H      -1.075220000000000      1.132302000000000     -1.223398000000000
H       1.445373000000000      2.001710000000000      0.371543000000000
H       1.410375000000000      1.653768000000000     -1.359934000000000
H       0.613422000000000      3.097436000000000     -0.735363000000000
