24
ORCA opt transition state final energy: -29967.92625663017 eV
C       4.131516000000000      0.194299000000000      0.117267000000000
O       2.958994000000000      0.269748000000000     -0.703824000000000
C       1.851851000000000      0.653481000000000     -0.066242000000000
O       1.813894000000000      0.962598000000000      1.095869000000000
C       0.665216000000000      0.704440000000000     -1.003209000000000
C      -0.623371000000000      0.424664000000000     -0.259101000000000
N      -1.663400000000000      1.294139000000000     -0.608639000000000
O      -2.847737000000000      0.717334000000000     -0.480609000000000
S      -0.912093000000000     -1.322320000000000     -0.023107000000000
C      -1.733867000000000     -1.434081000000000      1.535383000000000
O      -1.777798000000000     -1.846962000000000     -1.042522000000000
O       0.413789000000000     -1.864731000000000      0.127897000000000
O      -1.491741000000000      2.072387000000000      1.165508000000000
H       4.366912000000000      1.171453000000000      0.535305000000000
H       4.927132000000000     -0.145048000000000     -0.538055000000000
H       3.973094000000000     -0.513321000000000      0.928577000000000
H       0.611228000000000      1.718553000000000     -1.406838000000000
H       0.826620000000000      0.025367000000000     -1.839484000000000
H      -3.486821000000000      1.408190000000000     -0.708435000000000
H      -2.672651000000000     -0.889521000000000      1.483696000000000
H      -1.911983000000000     -2.496038000000000      1.698552000000000
H      -1.078853000000000     -1.027415000000000      2.301783000000000
H      -0.627325000000000      1.063292000000000      0.863663000000000
H      -1.086324000000000      2.950742000000000      1.192463000000000
