17
ORCA opt transition state final energy: -39761.42916830029 eV
C      -2.871502000000000      1.188203000000000      0.044052000000000
O      -2.492007000000000     -0.189125000000000      0.219540000000000
S      -1.206089000000000     -0.674886000000000     -0.566055000000000
O      -1.098817000000000     -2.060102000000000     -0.245943000000000
O      -1.281672000000000     -0.228894000000000     -1.922807000000000
C       0.155818000000000      0.144764000000000      0.141457000000000
Cl      0.265337000000000     -0.038610000000000      1.905069000000000
C       0.435918000000000      1.460458000000000     -0.302136000000000
N       0.847110000000000      2.485323000000000     -0.645936000000000
N       3.098955000000000      0.154240000000000      0.252093000000000
O       3.248625000000000      0.948378000000000     -0.472390000000000
O       2.260981000000000     -1.289423000000000     -0.735901000000000
H      -3.842332000000000      1.283336000000000      0.519883000000000
H      -2.938513000000000      1.429735000000000     -1.014631000000000
H      -2.152352000000000      1.842334000000000      0.538227000000000
H       1.328982000000000     -0.834521000000000     -0.500005000000000
H       2.272129000000000     -2.126659000000000     -0.248217000000000
