31
ORCA opt transition state final energy: -28534.435875263258 eV
C      -3.371900000000000      1.824562000000000      1.031523000000000
N      -4.001569000000000      0.981959000000000      0.024433000000000
C      -3.066696000000000      0.299397000000000     -0.855040000000000
C      -2.616525000000000     -1.061579000000000     -0.319951000000000
N      -1.773706000000000     -0.856505000000000      0.855034000000000
C      -0.423217000000000     -0.582407000000000      0.688801000000000
S       0.299790000000000     -0.574409000000000     -0.957991000000000
O       0.476432000000000     -1.989609000000000     -1.380032000000000
C       1.889387000000000      0.026075000000000     -0.385633000000000
C       2.930008000000000     -0.879355000000000     -0.282603000000000
C       4.175242000000000     -0.429166000000000      0.135170000000000
C       4.366546000000000      0.910647000000000      0.440553000000000
C       3.315443000000000      1.811735000000000      0.322070000000000
C       2.070815000000000      1.371972000000000     -0.100797000000000
O      -1.482708000000000     -2.515384000000000      1.332703000000000
H      -2.638908000000000      2.529190000000000      0.609577000000000
H      -4.138037000000000      2.397105000000000      1.553653000000000
H      -2.858050000000000      1.203709000000000      1.763998000000000
H      -4.631137000000000      1.541291000000000     -0.533215000000000
H      -2.185669000000000      0.915103000000000     -1.089092000000000
H      -3.568710000000000      0.092981000000000     -1.801980000000000
H      -3.495908000000000     -1.617443000000000     -0.005446000000000
H      -2.096391000000000     -1.625928000000000     -1.099161000000000
H      -0.022964000000000      0.165477000000000      1.367889000000000
H       2.747026000000000     -1.915548000000000     -0.538045000000000
H       4.998134000000000     -1.127015000000000      0.220456000000000
H       5.339264000000000      1.257700000000000      0.764108000000000
H       3.468739000000000      2.858418000000000      0.550521000000000
H       1.249196000000000      2.070507000000000     -0.212164000000000
H      -0.413968000000000     -1.919499000000000      1.172351000000000
H      -1.711880000000000     -2.524398000000000      2.274882000000000
