22
ORCA opt transition state final energy: -18012.66622469804 eV
C      -1.503845000000000      2.142518000000000      0.643551000000000
C      -0.809255000000000      0.826362000000000      0.798553000000000
O      -0.343739000000000      0.423708000000000      1.836032000000000
C      -0.733324000000000     -0.051541000000000     -0.464285000000000
C       0.457456000000000     -0.998528000000000     -0.395440000000000
N       1.692440000000000     -0.185545000000000     -0.479714000000000
C       2.196600000000000      1.172198000000000     -0.457123000000000
O       1.563540000000000      2.154985000000000     -0.628376000000000
C      -2.072015000000000     -0.798623000000000     -0.541123000000000
C      -2.207996000000000     -2.066740000000000      0.258096000000000
O      -2.977953000000000     -0.333302000000000     -1.184332000000000
N       2.922771000000000     -0.580329000000000     -0.043553000000000
N       3.521882000000000     -1.465679000000000      0.313703000000000
H      -0.845721000000000      2.798505000000000      0.069373000000000
H      -1.700026000000000      2.579870000000000      1.618666000000000
H      -2.426557000000000      2.020903000000000      0.074144000000000
H      -0.687904000000000      0.590884000000000     -1.343114000000000
H       0.463083000000000     -1.525670000000000      0.558251000000000
H       0.439089000000000     -1.714855000000000     -1.217818000000000
H      -3.247382000000000     -2.382542000000000      0.256189000000000
H      -1.592471000000000     -2.855601000000000     -0.179993000000000
H      -1.858013000000000     -1.909559000000000      1.280252000000000
