24
ORCA opt transition state final energy: -39443.35803525438 eV
O       1.214960000000000     -1.886796000000000     -0.343050000000000
S       1.122780000000000     -0.652343000000000      0.388867000000000
O       0.291837000000000     -0.557568000000000      1.561079000000000
C       0.765842000000000      0.708330000000000     -0.675438000000000
N      -0.523129000000000      1.201013000000000     -0.803600000000000
C      -1.690960000000000      0.512188000000000     -0.364185000000000
C      -1.856637000000000     -0.785672000000000     -0.840220000000000
C      -3.038470000000000     -1.457628000000000     -0.578209000000000
C      -4.047046000000000     -0.854081000000000      0.157664000000000
C      -3.866926000000000      0.437184000000000      0.628436000000000
C      -2.695830000000000      1.129702000000000      0.364467000000000
C       2.777547000000000     -0.268376000000000      0.972853000000000
Cl      3.952327000000000     -0.101672000000000     -0.335387000000000
O      -0.284158000000000      2.505205000000000      0.288777000000000
H       1.355662000000000      0.716104000000000     -1.585396000000000
H      -1.068643000000000     -1.266527000000000     -1.403827000000000
H      -3.160629000000000     -2.467868000000000     -0.945708000000000
H      -4.962773000000000     -1.389324000000000      0.369449000000000
H      -4.641399000000000      0.915124000000000      1.213972000000000
H      -2.544944000000000      2.126201000000000      0.750886000000000
H       3.052642000000000     -1.110192000000000      1.605068000000000
H       2.731869000000000      0.650923000000000      1.548545000000000
H       0.760353000000000      1.922237000000000      0.104891000000000
H      -0.328706000000000      3.285667000000000     -0.287133000000000
