27
ORCA opt transition state final energy: -18757.27918283153 eV
C       3.063927000000000      0.825994000000000      1.556758000000000
C       3.089120000000000      1.196358000000000      0.110617000000000
O       1.345430000000000      0.513061000000000     -0.718465000000000
C       3.386383000000000      0.379369000000000     -0.938978000000000
C       3.753354000000000     -1.066369000000000     -0.872990000000000
O       0.431466000000000     -1.455136000000000      0.511016000000000
C      -0.519572000000000     -0.945523000000000     -0.096154000000000
O      -0.396634000000000      0.079661000000000     -0.862525000000000
C      -1.911373000000000     -1.533674000000000      0.009862000000000
C      -3.006031000000000     -0.618685000000000     -0.506878000000000
C      -3.133559000000000      0.625961000000000      0.329531000000000
O      -2.645528000000000      0.793389000000000      1.415050000000000
O      -3.904055000000000      1.556249000000000     -0.269509000000000
H       3.071665000000000     -0.249210000000000      1.720358000000000
H       2.172743000000000      1.236527000000000      2.031619000000000
H       3.931738000000000      1.257899000000000      2.061527000000000
H       2.941637000000000      2.245897000000000     -0.111378000000000
H       3.450551000000000      0.840459000000000     -1.916672000000000
H       3.521928000000000     -1.520222000000000      0.087909000000000
H       4.824116000000000     -1.181542000000000     -1.059686000000000
H       3.227068000000000     -1.622589000000000     -1.648774000000000
H       1.359065000000000     -0.294795000000000     -0.112785000000000
H      -1.901363000000000     -2.470130000000000     -0.551403000000000
H      -2.067678000000000     -1.786470000000000      1.057589000000000
H      -2.829868000000000     -0.320101000000000     -1.539251000000000
H      -3.975013000000000     -1.123634000000000     -0.481548000000000
H      -3.942349000000000      2.310986000000000      0.336072000000000
