25
ORCA opt transition state final energy: -27199.492686829257 eV
O      -3.493916000000000     -0.851583000000000      0.492687000000000
N      -2.384617000000000     -0.534978000000000     -0.720123000000000
C      -1.242220000000000      0.124748000000000     -0.015655000000000
C       0.031551000000000     -0.056711000000000     -0.894708000000000
O      -0.070358000000000     -0.201495000000000     -2.074483000000000
C       1.355788000000000     -0.082587000000000     -0.178942000000000
C       2.083869000000000      1.211775000000000      0.089599000000000
C       3.542769000000000      1.141648000000000      0.181906000000000
C       4.172028000000000     -0.041113000000000      0.189980000000000
C       3.470187000000000     -1.279855000000000     -0.087441000000000
C       2.160496000000000     -1.299056000000000     -0.361277000000000
N      -1.122899000000000     -0.399964000000000      1.393948000000000
O       1.344820000000000      0.522482000000000      1.103884000000000
O      -0.616803000000000     -1.474508000000000      1.385841000000000
N      -1.593613000000000      1.578787000000000      0.088214000000000
O      -0.728193000000000      2.367731000000000     -0.229620000000000
O      -2.695995000000000      1.852257000000000      0.490747000000000
O      -2.162800000000000     -1.827202000000000     -0.871991000000000
H       1.620761000000000      2.139348000000000     -0.219311000000000
H       4.096077000000000      2.070542000000000      0.221983000000000
H       5.248573000000000     -0.077604000000000      0.295693000000000
H       4.049615000000000     -2.189687000000000     -0.174538000000000
H       1.662823000000000     -2.189308000000000     -0.722134000000000
H      -3.161404000000000     -1.853928000000000     -0.053293000000000
H      -4.326531000000000     -0.459559000000000      0.185495000000000
