20
ORCA opt transition state final energy: -25736.497015501158 eV
N      -2.416610000000000      2.338838000000000      0.348241000000000
C      -2.193366000000000      1.227601000000000      0.543756000000000
C      -1.964116000000000     -0.180050000000000      0.742972000000000
N      -1.046280000000000     -0.856088000000000     -0.057308000000000
C      -0.283471000000000     -0.094859000000000     -1.019864000000000
S       1.267488000000000      0.439059000000000     -0.243536000000000
O       0.951939000000000      1.077171000000000      1.004789000000000
O       1.978414000000000      1.127511000000000     -1.283803000000000
C       2.142794000000000     -1.099998000000000      0.132165000000000
N       1.681748000000000     -1.804626000000000      1.287082000000000
O      -2.310681000000000     -1.522918000000000     -1.101430000000000
H      -2.012208000000000     -0.535885000000000      1.764409000000000
H      -0.761929000000000      0.824471000000000     -1.369121000000000
H      -0.000889000000000     -0.720220000000000     -1.861606000000000
H       3.172431000000000     -0.757905000000000      0.255432000000000
H       2.098313000000000     -1.714355000000000     -0.767611000000000
H       1.716544000000000     -1.210858000000000      2.106394000000000
H       0.729485000000000     -2.124386000000000      1.167214000000000
H      -2.794307000000000     -0.910086000000000     -0.118952000000000
H      -2.302520000000000     -2.484348000000000     -0.968081000000000
