16
ORCA opt transition state final energy: -15408.44420378322 eV
N      -2.765681000000000     -1.199232000000000     -1.418696000000000
C      -2.361124000000000     -0.852173000000000     -0.402656000000000
C      -1.800063000000000     -0.415796000000000      0.888061000000000
O      -0.454726000000000     -0.843103000000000      1.026989000000000
C       0.469396000000000     -0.205244000000000      0.196676000000000
C       1.270940000000000     -1.239700000000000     -0.579238000000000
O       2.350133000000000     -1.085357000000000     -1.063822000000000
N       1.109959000000000      0.813221000000000      0.901877000000000
O       2.214388000000000      1.176365000000000      0.308624000000000
O      -0.290579000000000      1.939437000000000     -0.133134000000000
H      -2.355765000000000     -0.886024000000000      1.696281000000000
H      -1.875510000000000      0.670095000000000      0.954701000000000
H       0.700498000000000     -2.182836000000000     -0.656234000000000
H       2.583693000000000      1.870330000000000      0.876363000000000
H      -0.073014000000000      0.586458000000000     -0.572243000000000
H      -0.493976000000000      2.848988000000000     -0.398998000000000
