19
ORCA opt transition state final energy: -14330.831954536692 eV
N       3.016460000000000     -0.581337000000000     -0.578643000000000
N       2.602486000000000      0.490021000000000      0.262605000000000
C       1.237327000000000      0.861115000000000      0.023163000000000
N       0.276528000000000     -0.003444000000000      0.713022000000000
O       0.323829000000000     -1.327782000000000      0.220898000000000
C      -1.055149000000000      0.481240000000000      0.869820000000000
N      -1.855630000000000      0.852772000000000     -0.212509000000000
O      -1.318852000000000      0.414643000000000     -1.347373000000000
O      -2.976263000000000     -0.748501000000000      0.371813000000000
H       2.736993000000000     -1.479565000000000     -0.198662000000000
H       4.022815000000000     -0.542508000000000     -0.658185000000000
H       2.715085000000000      0.262083000000000      1.245604000000000
H       1.098385000000000      0.872901000000000     -1.060720000000000
H       1.058289000000000      1.863610000000000      0.422456000000000
H      -0.055311000000000     -1.307393000000000     -0.671495000000000
H      -1.163782000000000      1.224300000000000      1.657375000000000
H      -1.963714000000000      0.643855000000000     -2.031228000000000
H      -1.847919000000000     -0.427315000000000      1.153553000000000
H      -3.855358000000000     -1.155393000000000      0.334547000000000
