20
ORCA opt transition state final energy: -25497.9455216953 eV
C       2.827985000000000      0.716954000000000     -0.386553000000000
N       2.606078000000000     -0.726019000000000     -0.301322000000000
O       1.197128000000000     -0.967391000000000     -0.512166000000000
C       0.483674000000000     -0.842579000000000      0.609541000000000
O       0.898232000000000     -0.566861000000000      1.697076000000000
C      -0.984309000000000     -1.156975000000000      0.374350000000000
C      -1.832960000000000     -0.168850000000000      1.101201000000000
O      -2.546323000000000      0.036062000000000     -0.847602000000000
C      -1.576394000000000     -1.017944000000000     -1.029358000000000
Cl     -0.700219000000000      1.994666000000000     -0.042298000000000
H       2.387542000000000      1.165642000000000     -1.279678000000000
H       2.408691000000000      1.194786000000000      0.494651000000000
H       3.908552000000000      0.861445000000000     -0.389589000000000
H       2.981198000000000     -1.165703000000000     -1.135027000000000
H      -1.146930000000000     -2.147609000000000      0.818120000000000
H      -1.368601000000000      0.558981000000000      1.746308000000000
H      -2.871287000000000     -0.404177000000000      1.278337000000000
H      -2.113034000000000     -1.905908000000000     -1.353078000000000
H      -0.831097000000000     -0.746481000000000     -1.772096000000000
H      -2.049755000000000      0.896580000000000     -0.924835000000000
