26
ORCA opt transition state final energy: -41055.1159338734 eV
C      -3.976709000000000      1.525699000000000      0.233986000000000
C      -3.472286000000000      0.227724000000000     -0.325168000000000
O      -4.183443000000000     -0.657968000000000     -0.725747000000000
C      -1.971289000000000      0.042415000000000     -0.365970000000000
C      -1.222951000000000      0.896772000000000     -1.182090000000000
C       0.139188000000000      0.765715000000000     -1.241928000000000
C       0.750547000000000     -0.295461000000000     -0.524909000000000
S       2.529856000000000     -0.138938000000000     -0.163668000000000
O       3.166040000000000      1.023780000000000     -0.677984000000000
O       3.059342000000000     -1.145654000000000      0.702869000000000
Cl      1.572470000000000      1.081613000000000      1.704287000000000
C      -0.018948000000000     -1.087765000000000      0.368086000000000
C      -1.389200000000000     -0.970391000000000      0.413771000000000
C      -2.212968000000000     -1.844736000000000      1.317667000000000
O       2.615030000000000     -1.133925000000000     -1.691440000000000
H      -3.603974000000000      1.651169000000000      1.253423000000000
H      -5.063227000000000      1.531598000000000      0.224524000000000
H      -3.591262000000000      2.367128000000000     -0.344392000000000
H      -1.718846000000000      1.675350000000000     -1.746423000000000
H       0.760676000000000      1.427633000000000     -1.830775000000000
H       0.505409000000000     -1.799231000000000      0.994418000000000
H      -2.858090000000000     -1.247331000000000      1.963720000000000
H      -1.565540000000000     -2.446025000000000      1.952284000000000
H      -2.855105000000000     -2.506642000000000      0.737955000000000
H       3.161170000000000     -1.909400000000000     -1.505317000000000
H       1.125959000000000     -1.056230000000000     -1.415839000000000
