28
ORCA opt transition state final energy: -29711.917648093364 eV
C       0.172480000000000      2.592438000000000      0.533168000000000
O       0.375864000000000      1.169065000000000      0.699957000000000
C       1.349840000000000      0.632945000000000     -0.154944000000000
O       2.009707000000000      1.355402000000000     -0.827935000000000
C       1.481913000000000     -0.852270000000000     -0.032101000000000
C       2.852651000000000     -1.317171000000000     -0.519647000000000
C       3.925204000000000     -0.870394000000000      0.371548000000000
N       4.738957000000000     -0.515720000000000      1.098681000000000
C      -4.222206000000000      0.082063000000000      0.236262000000000
C      -3.327819000000000     -1.149926000000000      0.226683000000000
C      -1.882184000000000     -0.982064000000000      0.671538000000000
O      -1.175149000000000     -1.937323000000000      0.900671000000000
C      -1.426778000000000      0.383250000000000      1.097078000000000
Cl     -1.313224000000000      0.352281000000000     -1.511204000000000
H      -0.323066000000000      2.765805000000000     -0.419950000000000
H       1.134572000000000      3.092261000000000      0.564262000000000
H      -0.443078000000000      2.905451000000000      1.371963000000000
H       0.694789000000000     -1.285067000000000     -0.650619000000000
H       1.284726000000000     -1.167854000000000      0.990481000000000
H       3.048587000000000     -0.931791000000000     -1.519786000000000
H       2.873657000000000     -2.405524000000000     -0.565976000000000
H      -3.859745000000000      0.833517000000000     -0.464179000000000
H      -4.301848000000000      0.524188000000000      1.232521000000000
H      -5.230248000000000     -0.195856000000000     -0.068990000000000
H      -3.720938000000000     -1.920247000000000      0.895002000000000
H      -3.282792000000000     -1.586896000000000     -0.770177000000000
H      -0.968511000000000      0.395018000000000      2.078789000000000
H      -2.021111000000000      1.237308000000000      0.819013000000000
