31
ORCA opt transition state final energy: -20318.290264885927 eV
C       1.485463000000000     -0.671391000000000      0.914351000000000
C       0.160207000000000     -0.857413000000000     -0.780989000000000
C      -0.735062000000000      0.181522000000000     -0.566199000000000
C      -0.322295000000000      1.477985000000000     -0.811915000000000
C      -1.150096000000000      2.692668000000000     -0.588112000000000
N      -1.894539000000000     -0.056085000000000      0.238618000000000
C      -1.915611000000000      0.344533000000000      1.644321000000000
C      -2.970354000000000     -0.741332000000000     -0.220216000000000
O      -3.944009000000000     -1.018858000000000      0.445089000000000
O      -2.853527000000000     -1.090258000000000     -1.525936000000000
C       2.406648000000000     -1.736811000000000      0.709620000000000
C       3.554603000000000     -1.530294000000000      0.007478000000000
C       3.865510000000000     -0.228365000000000     -0.464520000000000
C       3.041112000000000      0.827643000000000     -0.216147000000000
C       1.839575000000000      0.661109000000000      0.545965000000000
O       1.028549000000000      1.628233000000000      0.732905000000000
H       0.681113000000000     -0.797448000000000      1.626623000000000
H       0.938356000000000     -0.750255000000000     -1.525415000000000
H      -0.143512000000000     -1.871296000000000     -0.559550000000000
H       0.514453000000000      1.591251000000000     -1.488830000000000
H      -0.529391000000000      3.490053000000000     -0.182153000000000
H      -1.553376000000000      3.034528000000000     -1.544844000000000
H      -1.983192000000000      2.507051000000000      0.085391000000000
H      -1.050707000000000      0.976838000000000      1.829708000000000
H      -1.879669000000000     -0.528357000000000      2.299224000000000
H      -2.832046000000000      0.889424000000000      1.866680000000000
H      -3.676398000000000     -1.552849000000000     -1.731487000000000
H       2.165218000000000     -2.722182000000000      1.089332000000000
H       4.240419000000000     -2.346014000000000     -0.178454000000000
H       4.782509000000000     -0.074823000000000     -1.020418000000000
H       3.284092000000000      1.827397000000000     -0.554598000000000
