21
ORCA opt transition state final energy: -152609.10958593964 eV
C       1.500652000000000      3.072488000000000     -0.034213000000000
O       1.804105000000000      1.706821000000000      0.318669000000000
C       0.838888000000000      0.977401000000000      0.816135000000000
O      -0.218489000000000      1.625096000000000      1.205048000000000
C       0.984843000000000     -0.418840000000000      0.941313000000000
C       0.113225000000000     -1.165059000000000      1.884396000000000
Br     -0.165679000000000     -0.422529000000000     -1.509197000000000
C       2.188949000000000     -1.168088000000000      0.437189000000000
C       3.179313000000000     -0.550105000000000     -0.510650000000000
O       2.331564000000000     -2.309857000000000      0.815425000000000
Br     -2.423435000000000     -0.122962000000000      0.145803000000000
H       0.655008000000000      3.095336000000000     -0.718093000000000
H       1.276949000000000      3.651551000000000      0.858001000000000
H       2.399082000000000      3.441026000000000     -0.516742000000000
H      -0.413259000000000     -0.510290000000000      2.575598000000000
H      -0.641336000000000     -1.746606000000000      1.345452000000000
H       0.729257000000000     -1.876312000000000      2.432554000000000
H       3.814398000000000     -1.347369000000000     -0.887706000000000
H       3.789260000000000      0.183241000000000      0.018132000000000
H       2.680448000000000     -0.036123000000000     -1.329617000000000
H      -1.045063000000000      1.056430000000000      1.117383000000000
