17
ORCA opt transition state final energy: -26909.920445327065 eV
O       0.233994000000000      2.161859000000000     -0.003856000000000
C       0.394799000000000      0.998803000000000     -0.260836000000000
C       1.672927000000000      0.473133000000000     -0.884817000000000
Cl      2.788393000000000      0.013600000000000      0.431131000000000
C      -0.712361000000000     -0.006747000000000     -0.035341000000000
N      -0.198144000000000     -1.273786000000000      0.214619000000000
O      -0.985863000000000     -1.928296000000000      1.052941000000000
N      -1.793508000000000      0.472904000000000      0.782384000000000
O      -2.518834000000000      1.430494000000000      0.018251000000000
O      -0.877246000000000     -1.685575000000000     -1.630461000000000
H       1.486839000000000     -0.407073000000000     -1.494023000000000
H       2.140023000000000      1.269766000000000     -1.455052000000000
H      -0.551038000000000     -2.783595000000000      1.182466000000000
H      -2.459896000000000     -0.274247000000000      0.936072000000000
H      -2.111898000000000      2.261843000000000      0.292778000000000
H      -1.069961000000000     -0.322275000000000     -1.165213000000000
H      -1.011226000000000     -2.412097000000000     -2.260602000000000
