20
ORCA opt transition state final energy: -106901.34452591148 eV
O       4.331502000000000     -1.326724000000000     -1.170238000000000
C       3.715187000000000     -0.805249000000000     -0.286695000000000
O       3.863738000000000     -1.091313000000000      1.011820000000000
C       2.710814000000000      0.303553000000000     -0.534054000000000
S       1.164478000000000      0.024396000000000      0.372766000000000
O       0.842592000000000     -1.326268000000000     -0.006295000000000
O       1.377705000000000      0.486241000000000      1.711011000000000
C      -1.159890000000000      0.376520000000000      0.578388000000000
C      -1.165843000000000      1.755971000000000      0.585659000000000
Cl      0.607289000000000      2.181638000000000     -0.966139000000000
C      -1.856417000000000     -0.366952000000000     -0.504263000000000
Br     -3.793232000000000     -0.403410000000000     -0.191051000000000
H       4.517645000000000     -1.803852000000000      1.077759000000000
H       3.079729000000000      1.270138000000000     -0.198845000000000
H       2.454544000000000      0.327067000000000     -1.587105000000000
H      -1.019452000000000     -0.130350000000000      1.525020000000000
H      -0.728447000000000      2.296382000000000      1.413463000000000
H      -1.787601000000000      2.325320000000000     -0.091022000000000
H      -1.719907000000000      0.110752000000000     -1.470898000000000
H      -1.545175000000000     -1.403330000000000     -0.552290000000000
