22
ORCA opt transition state final energy: -16074.134764949977 eV
C      -0.832441000000000     -0.001558000000000     -0.554263000000000
C       0.243334000000000      0.632073000000000     -1.284340000000000
C       0.795317000000000      1.077072000000000      0.169770000000000
O       0.650555000000000      2.289350000000000      0.484857000000000
C       2.184187000000000      0.447865000000000      0.443237000000000
N       2.226225000000000     -0.990440000000000      0.069440000000000
O       2.954369000000000     -1.329405000000000     -0.839302000000000
O       1.473861000000000     -1.740362000000000      0.669853000000000
O      -1.921782000000000      0.671263000000000     -0.341755000000000
C      -2.846938000000000      0.116892000000000      0.630574000000000
C      -3.729264000000000     -0.934163000000000      0.000105000000000
H       0.101466000000000      0.321373000000000      0.840085000000000
H      -0.804283000000000     -1.056788000000000     -0.291767000000000
H       0.865719000000000     -0.048145000000000     -1.858066000000000
H      -0.041191000000000      1.530545000000000     -1.818276000000000
H       2.393616000000000      0.520851000000000      1.506313000000000
H       2.931353000000000      0.959444000000000     -0.153876000000000
H      -2.262078000000000     -0.270995000000000      1.466571000000000
H      -3.417530000000000      0.975029000000000      0.974336000000000
H      -4.444072000000000     -1.297720000000000      0.738358000000000
H      -3.148733000000000     -1.787880000000000     -0.351321000000000
H      -4.282530000000000     -0.516602000000000     -0.840072000000000
