29
ORCA opt transition state final energy: -24915.83611018381 eV
C      -0.261140000000000      0.859790000000000     -0.539013000000000
C       0.847167000000000      0.071561000000000      0.936491000000000
O       0.528558000000000      0.375956000000000      2.019852000000000
C       2.171731000000000     -0.270256000000000      0.366652000000000
C       3.267871000000000      0.322331000000000      0.986009000000000
C       4.542432000000000      0.060746000000000      0.509494000000000
C       4.717379000000000     -0.792350000000000     -0.570255000000000
C       3.618120000000000     -1.387440000000000     -1.175357000000000
C       2.339191000000000     -1.125514000000000     -0.712563000000000
C      -1.049068000000000     -0.306337000000000     -0.207302000000000
O      -0.347055000000000     -1.278930000000000      0.215251000000000
C      -2.467940000000000     -0.193193000000000     -0.158522000000000
C      -3.402469000000000     -1.320065000000000      0.031695000000000
O      -4.581127000000000     -1.194220000000000      0.265406000000000
O      -2.828122000000000     -2.525589000000000     -0.116212000000000
C      -2.990623000000000      1.084153000000000     -0.151471000000000
C      -2.230177000000000      2.253447000000000     -0.293741000000000
C      -0.882790000000000      2.135512000000000     -0.543109000000000
O      -0.085031000000000      3.182101000000000     -0.827930000000000
H       0.552658000000000      0.728443000000000     -1.240219000000000
H       3.112970000000000      0.976652000000000      1.833121000000000
H       5.398316000000000      0.520168000000000      0.985688000000000
H       5.713560000000000     -0.998227000000000     -0.939581000000000
H       3.757519000000000     -2.062830000000000     -2.008898000000000
H       1.472961000000000     -1.596320000000000     -1.155805000000000
H      -3.534914000000000     -3.172756000000000      0.023353000000000
H      -4.060502000000000      1.166638000000000     -0.000432000000000
H      -2.711436000000000      3.222997000000000     -0.268782000000000
H      -0.606916000000000      3.992822000000000     -0.837987000000000
