31
ORCA opt transition state final energy: -18276.713231556972 eV
C      -2.774339000000000     -2.178496000000000     -1.081089000000000
C      -2.137922000000000     -1.449020000000000      0.103669000000000
C      -2.393753000000000      0.027674000000000      0.037592000000000
C      -1.254638000000000      0.684554000000000      1.996148000000000
C      -0.026312000000000      0.159795000000000      1.708842000000000
C       0.741685000000000      0.834494000000000      0.743743000000000
N       1.981435000000000      0.443933000000000      0.250163000000000
C       2.663112000000000      1.407297000000000     -0.616762000000000
C       2.316761000000000     -0.887728000000000      0.165363000000000
O       1.752104000000000     -1.808625000000000      0.700811000000000
O       3.417483000000000     -1.063948000000000     -0.600823000000000
C      -1.547428000000000      0.900629000000000     -0.605806000000000
C      -1.945039000000000      2.333289000000000     -0.851752000000000
O      -0.319429000000000      0.584255000000000     -0.844993000000000
H      -2.346061000000000     -1.822713000000000     -2.019113000000000
H      -3.852433000000000     -2.009150000000000     -1.119744000000000
H      -2.604690000000000     -3.254319000000000     -1.014188000000000
H      -1.062783000000000     -1.627734000000000      0.102933000000000
H      -2.536932000000000     -1.856053000000000      1.037484000000000
H      -3.412063000000000      0.361092000000000      0.218811000000000
H      -1.468404000000000      1.733727000000000      1.836435000000000
H      -1.936135000000000      0.163984000000000      2.655630000000000
H       0.213476000000000     -0.856642000000000      1.971106000000000
H       0.624403000000000      1.908710000000000      0.699206000000000
H       2.326152000000000      1.308309000000000     -1.648326000000000
H       2.428443000000000      2.407368000000000     -0.260923000000000
H       3.736661000000000      1.260917000000000     -0.565891000000000
H       3.585857000000000     -2.015441000000000     -0.582289000000000
H      -2.986094000000000      2.525535000000000     -0.594442000000000
H      -1.786602000000000      2.584844000000000     -1.901000000000000
H      -1.308034000000000      3.004463000000000     -0.265244000000000
