16
ORCA opt transition state final energy: -75840.59817260332 eV
C      -0.350918000000000      2.042608000000000     -0.735374000000000
C      -0.605742000000000      1.484096000000000      0.515688000000000
Br      1.600114000000000     -0.366531000000000      0.045515000000000
C      -1.556118000000000      0.382494000000000      0.754106000000000
N      -1.863701000000000     -0.361439000000000     -0.438760000000000
C      -2.922974000000000     -1.337859000000000     -0.224672000000000
H      -1.015503000000000      1.764538000000000     -1.544838000000000
H       0.542542000000000      1.216789000000000     -0.764357000000000
H       0.144429000000000      3.004986000000000     -0.771173000000000
H      -0.084467000000000      1.871586000000000      1.384214000000000
H      -2.463050000000000      0.912034000000000      1.102121000000000
H      -1.208597000000000     -0.220500000000000      1.601380000000000
H      -1.005194000000000     -0.831406000000000     -0.720080000000000
H      -3.863758000000000     -0.822482000000000     -0.022761000000000
H      -3.054044000000000     -1.927477000000000     -1.129800000000000
H      -2.721568000000000     -2.023025000000000      0.609260000000000
