9
ORCA opt transition state final energy: -44437.11739125792 eV
O      -0.783207000000000     -1.762108000000000     -0.939173000000000
C      -0.504465000000000     -0.697770000000000     -0.617952000000000
F      -1.730480000000000      0.471031000000000     -1.091676000000000
C       0.792661000000000      0.092471000000000     -0.616043000000000
Cl      0.697916000000000      1.774524000000000     -0.174038000000000
Cl      1.923517000000000     -0.808400000000000      0.391080000000000
Cl     -1.515296000000000     -0.113112000000000      1.417737000000000
H       1.139210000000000      0.032792000000000     -1.646697000000000
H      -1.946597000000000      0.453712000000000      0.034692000000000
