30
ORCA opt transition state final energy: -17702.07478281872 eV
C       0.928684000000000     -2.386937000000000     -0.181255000000000
C       1.650223000000000     -1.069447000000000     -0.260504000000000
O       2.501286000000000     -0.777237000000000     -1.053742000000000
N       0.678107000000000      0.147262000000000      0.269479000000000
C      -0.749313000000000     -0.002605000000000      0.119212000000000
C      -1.313847000000000     -0.252779000000000     -1.125315000000000
C      -2.688205000000000     -0.391122000000000     -1.239478000000000
C      -3.497372000000000     -0.284481000000000     -0.116304000000000
C      -2.929421000000000     -0.044833000000000      1.125978000000000
C      -1.554321000000000      0.094764000000000      1.245055000000000
N       1.235103000000000      1.420901000000000     -0.059781000000000
C       0.794740000000000      2.423989000000000      0.893428000000000
C       1.008118000000000      1.826382000000000     -1.436797000000000
O       2.215479000000000     -1.017756000000000      1.519133000000000
H       0.262372000000000     -2.446817000000000      0.675263000000000
H       0.365708000000000     -2.551218000000000     -1.100395000000000
H       1.694825000000000     -3.152468000000000     -0.089325000000000
H      -0.677434000000000     -0.352703000000000     -1.994957000000000
H      -3.128076000000000     -0.588676000000000     -2.208196000000000
H      -4.569605000000000     -0.395542000000000     -0.209505000000000
H      -3.555082000000000      0.029661000000000      2.005582000000000
H      -1.097009000000000      0.270200000000000      2.211093000000000
H      -0.279919000000000      2.646174000000000      0.826974000000000
H       1.028832000000000      2.095147000000000      1.906246000000000
H       1.348073000000000      3.340964000000000      0.694412000000000
H       1.348586000000000      1.039815000000000     -2.104665000000000
H       1.616750000000000      2.711376000000000     -1.618864000000000
H      -0.040353000000000      2.080290000000000     -1.644891000000000
H       1.202412000000000     -0.164991000000000      1.259029000000000
H       3.067218000000000     -0.569633000000000      1.460021000000000
