17
ORCA opt transition state final energy: -11921.446430601765 eV
C      -1.910927000000000     -1.236227000000000     -0.926330000000000
C      -1.127895000000000     -0.392482000000000      0.058172000000000
O      -0.614710000000000     -1.125606000000000      1.151860000000000
N      -0.298709000000000      0.546996000000000     -0.480305000000000
C       0.986044000000000      0.750597000000000      0.155216000000000
C       1.901609000000000     -0.418918000000000     -0.184069000000000
O       3.094681000000000     -0.324633000000000     -0.119747000000000
O      -1.251820000000000      1.955568000000000      0.409471000000000
H      -1.291437000000000     -2.046335000000000     -1.315814000000000
H      -2.777189000000000     -1.678964000000000     -0.436692000000000
H      -2.250794000000000     -0.620610000000000     -1.756922000000000
H      -1.225621000000000     -1.066179000000000      1.891131000000000
H       1.435984000000000      1.670256000000000     -0.208125000000000
H       0.914737000000000      0.786821000000000      1.244423000000000
H       1.411508000000000     -1.366921000000000     -0.471336000000000
H      -1.754586000000000      0.688270000000000      0.431636000000000
H      -1.645567000000000      2.590448000000000     -0.207267000000000
