16
ORCA opt transition state final energy: -12923.89294113699 eV
C      -0.744409000000000      1.996319000000000     -0.020003000000000
C      -0.763715000000000      0.602240000000000      0.082683000000000
C      -2.147856000000000      0.029171000000000      0.332485000000000
O      -3.059379000000000      0.138865000000000     -0.434750000000000
C       0.305351000000000     -0.379137000000000      0.111717000000000
C       0.053709000000000     -1.850685000000000      0.129152000000000
N       1.639433000000000      0.043522000000000      0.123172000000000
O       1.877009000000000      1.250519000000000     -0.013432000000000
O       2.510783000000000     -0.810562000000000      0.261909000000000
H      -0.448818000000000      0.559138000000000     -1.057275000000000
H      -1.701343000000000      2.495569000000000     -0.079712000000000
H       0.173515000000000      2.544913000000000     -0.126028000000000
H      -2.256891000000000     -0.467775000000000      1.312788000000000
H       0.251574000000000     -2.275223000000000      1.116438000000000
H       0.709480000000000     -2.361010000000000     -0.574773000000000
H      -0.979381000000000     -2.074844000000000     -0.138411000000000
