27
ORCA opt transition state final energy: -21260.352912623814 eV
O       4.194501000000000     -1.537849000000000     -0.825458000000000
C       4.101133000000000     -0.617551000000000     -0.063817000000000
C       2.999056000000000      0.435202000000000     -0.168520000000000
O       3.169256000000000      1.500631000000000      0.370961000000000
C       1.760014000000000      0.105845000000000     -0.967586000000000
C       0.554831000000000      0.297510000000000     -0.074190000000000
C       0.554732000000000     -0.500761000000000      1.142773000000000
O       1.547287000000000     -1.103999000000000      1.505084000000000
N      -0.616276000000000      0.792817000000000     -0.646565000000000
C      -1.885895000000000      0.252384000000000     -0.288582000000000
C      -2.036957000000000     -1.125491000000000     -0.441145000000000
C      -3.277505000000000     -1.705497000000000     -0.240096000000000
C      -4.369041000000000     -0.927964000000000      0.120686000000000
C      -4.208562000000000      0.439898000000000      0.271176000000000
C      -2.973980000000000      1.037998000000000      0.062158000000000
O      -0.525854000000000      2.311051000000000      0.111877000000000
H       4.825349000000000     -0.420404000000000      0.746410000000000
H       1.833267000000000     -0.913009000000000     -1.351024000000000
H       1.706770000000000      0.794607000000000     -1.812890000000000
H      -0.362572000000000     -0.493864000000000      1.756759000000000
H      -1.187964000000000     -1.733276000000000     -0.726544000000000
H      -3.386025000000000     -2.775213000000000     -0.361341000000000
H      -5.334700000000000     -1.386250000000000      0.285159000000000
H      -5.050175000000000      1.056659000000000      0.558039000000000
H      -2.847658000000000      2.101983000000000      0.192170000000000
H       0.477364000000000      1.654059000000000      0.413140000000000
H      -0.313816000000000      2.928485000000000     -0.607534000000000
