18
ORCA opt transition state final energy: -26931.050903935906 eV
C       2.044076000000000     -1.233091000000000      1.091247000000000
S       1.585276000000000      0.124089000000000      0.057338000000000
O       1.083059000000000      1.175145000000000      0.892214000000000
O       2.624589000000000      0.358180000000000     -0.901210000000000
C       0.195791000000000     -0.535368000000000     -0.896838000000000
N      -0.879468000000000     -0.796671000000000      0.031652000000000
C      -1.852058000000000      0.150809000000000      0.217473000000000
F      -2.317580000000000      0.194078000000000      1.503131000000000
C      -1.735886000000000      1.452327000000000     -0.389343000000000
N      -1.683202000000000      2.449230000000000     -0.958389000000000
O      -1.922682000000000     -1.837580000000000     -0.944715000000000
H       2.398336000000000     -2.055268000000000      0.474247000000000
H       1.187918000000000     -1.516040000000000      1.698844000000000
H       2.849113000000000     -0.859227000000000      1.721955000000000
H      -0.017253000000000      0.217594000000000     -1.660358000000000
H       0.533829000000000     -1.458556000000000     -1.356848000000000
H      -2.525464000000000     -0.810763000000000     -0.578385000000000
H      -2.147774000000000     -2.587478000000000     -0.369926000000000
