19
ORCA opt transition state final energy: -15224.45198351122 eV
C       1.758065000000000     -1.553685000000000     -0.428466000000000
C       0.594347000000000     -1.091541000000000      0.214717000000000
C      -0.732064000000000     -1.177244000000000     -0.500917000000000
C      -1.857793000000000     -0.351423000000000      0.073175000000000
O      -2.780748000000000      0.070205000000000     -0.567213000000000
O      -1.755172000000000     -0.202868000000000      1.405128000000000
C       1.712663000000000      0.341317000000000      0.089297000000000
O       2.241099000000000      0.634394000000000      1.159154000000000
C       1.002627000000000      1.270510000000000     -0.877734000000000
F      -0.170493000000000      1.747958000000000     -0.328329000000000
H       2.462864000000000     -0.175340000000000     -0.764398000000000
H       2.605208000000000     -1.895419000000000      0.150835000000000
H       1.729831000000000     -1.851808000000000     -1.472148000000000
H       0.557142000000000     -1.159374000000000      1.292664000000000
H      -0.659192000000000     -0.926858000000000     -1.558523000000000
H      -1.087176000000000     -2.214006000000000     -0.459749000000000
H      -2.511324000000000      0.333260000000000      1.685829000000000
H       0.774969000000000      0.769134000000000     -1.819262000000000
H       1.657529000000000      2.125139000000000     -1.050001000000000
