14
ORCA opt transition state final energy: -9843.524922088862 eV
O       2.374985000000000     -0.918886000000000     -0.342031000000000
C       1.440963000000000     -0.595152000000000      0.456053000000000
C       1.057096000000000      0.753138000000000      0.209498000000000
C      -0.335835000000000      1.274758000000000      0.459820000000000
N      -1.303408000000000      0.830657000000000     -0.539950000000000
C      -1.645027000000000     -0.468619000000000     -0.622183000000000
O      -1.269915000000000     -1.318683000000000      0.163563000000000
H       2.025117000000000      0.200454000000000     -0.815439000000000
H       1.062603000000000     -1.322601000000000      1.169564000000000
H       1.859140000000000      1.416178000000000      0.537654000000000
H      -0.335919000000000      2.362829000000000      0.446425000000000
H      -0.714248000000000      0.962021000000000      1.436318000000000
H      -1.530951000000000      1.434519000000000     -1.310475000000000
H      -2.313083000000000     -0.697984000000000     -1.467897000000000
