17
ORCA opt transition state final energy: -77442.76830547307 eV
C       3.479614000000000     -0.211667000000000     -1.043480000000000
C       2.465132000000000     -0.197257000000000      0.069634000000000
C       1.547266000000000     -1.268409000000000      0.155851000000000
C       0.435260000000000     -1.217124000000000      0.941651000000000
C      -0.561830000000000      0.643732000000000      0.099243000000000
Br     -2.282448000000000      0.061089000000000     -0.148127000000000
C       0.242691000000000      1.571144000000000      0.041440000000000
C       2.260823000000000      0.923813000000000      0.823583000000000
H       4.109515000000000     -1.100498000000000     -0.977909000000000
H       4.126998000000000      0.663217000000000     -1.005359000000000
H       2.989592000000000     -0.232383000000000     -2.019725000000000
H       1.618558000000000     -2.052767000000000     -0.591317000000000
H       0.400217000000000     -0.623938000000000      1.844442000000000
H      -0.317080000000000     -1.990960000000000      0.866602000000000
H       0.590287000000000      2.559135000000000     -0.155801000000000
H       2.893999000000000      1.791906000000000      0.683161000000000
H       1.725945000000000      0.888737000000000      1.761020000000000
