21
ORCA opt transition state final energy: -97350.38547493966 eV
O       2.509995000000000     -1.722650000000000     -0.323155000000000
C       3.349393000000000     -0.895498000000000     -0.023024000000000
O       4.611090000000000     -1.010778000000000     -0.455223000000000
C       3.147123000000000      0.333338000000000      0.845459000000000
O       1.877892000000000      0.497911000000000      1.327387000000000
S       0.286491000000000      0.903850000000000     -0.105442000000000
O      -0.204873000000000      1.824861000000000      0.862504000000000
O       1.297624000000000      1.010365000000000     -1.109596000000000
N      -1.055192000000000      0.775209000000000     -1.127756000000000
C      -2.369425000000000      0.916452000000000     -0.702318000000000
Br     -3.210073000000000     -0.785927000000000      0.059556000000000
N       0.119283000000000     -0.755269000000000      0.536184000000000
H       4.652939000000000     -1.807943000000000     -1.003868000000000
H       3.882397000000000      0.243418000000000      1.658679000000000
H       3.486091000000000      1.178630000000000      0.228247000000000
H      -0.865589000000000      0.366936000000000     -2.029549000000000
H      -3.039695000000000      1.149715000000000     -1.519667000000000
H      -2.451915000000000      1.615904000000000      0.118889000000000
H      -0.857372000000000     -1.053450000000000      0.611893000000000
H       0.728335000000000     -1.363439000000000     -0.040023000000000
H       0.731253000000000     -0.606624000000000      1.396652000000000
