30
ORCA opt transition state final energy: -88736.72791401863 eV
C       3.075933000000000      1.915790000000000      0.081085000000000
C       2.001440000000000      1.429807000000000      1.050460000000000
C       0.784382000000000      0.866002000000000      0.372840000000000
C       0.995079000000000     -0.062972000000000     -0.749520000000000
Br      2.054607000000000     -1.684388000000000     -0.178950000000000
C      -0.409121000000000      0.888652000000000      1.147128000000000
O      -0.581666000000000      1.116156000000000      2.334416000000000
N      -1.531170000000000      0.759645000000000      0.245573000000000
C      -2.680179000000000      0.007147000000000      0.606924000000000
N      -2.585621000000000     -1.474309000000000      0.270178000000000
O      -1.720261000000000     -1.842652000000000     -0.490036000000000
O      -3.435103000000000     -2.164191000000000      0.780174000000000
C      -1.347817000000000      1.477923000000000     -0.868960000000000
C      -1.958346000000000      1.012703000000000     -2.147167000000000
C      -0.913173000000000      2.912553000000000     -0.834926000000000
H       3.884649000000000      2.402759000000000      0.625678000000000
H       2.672945000000000      2.640456000000000     -0.631194000000000
H       3.511971000000000      1.089325000000000     -0.481498000000000
H       2.428693000000000      0.664423000000000      1.708720000000000
H       1.682023000000000      2.239345000000000      1.710465000000000
H       1.619081000000000      0.342735000000000     -1.540696000000000
H       0.096806000000000     -0.506510000000000     -1.155511000000000
H      -3.585407000000000      0.346619000000000      0.109618000000000
H      -2.798506000000000      0.057478000000000      1.687740000000000
H      -1.246642000000000      1.176633000000000     -2.959641000000000
H      -2.837044000000000      1.620935000000000     -2.384592000000000
H      -2.226002000000000     -0.040397000000000     -2.129515000000000
H      -0.103693000000000      3.098800000000000     -1.539450000000000
H      -1.763569000000000      3.531219000000000     -1.153063000000000
H      -0.595158000000000      3.216004000000000      0.158470000000000
