36
ORCA opt transition state final energy: -20851.889840544965 eV
C      -4.077473000000000      0.137081000000000     -0.383797000000000
C      -3.011826000000000      1.187268000000000     -0.630791000000000
N      -1.840787000000000      0.967406000000000      0.233168000000000
N      -1.125122000000000     -0.173678000000000     -0.158985000000000
C       0.012666000000000     -0.143834000000000     -1.056010000000000
O      -0.079588000000000      0.050542000000000     -2.254651000000000
C       1.133393000000000     -0.536757000000000     -0.251270000000000
C       2.357966000000000     -0.972007000000000     -1.017183000000000
C       3.341555000000000     -1.800082000000000     -0.193715000000000
C       1.396184000000000      0.272165000000000      1.011550000000000
C       1.785718000000000      1.676353000000000      0.614918000000000
O       0.992200000000000      2.535212000000000      0.312936000000000
O       3.113962000000000      1.881509000000000      0.575411000000000
C      -0.992970000000000     -1.265032000000000      0.604540000000000
C      -1.394466000000000     -1.228762000000000      2.039879000000000
C      -0.941627000000000     -2.620362000000000     -0.037498000000000
H      -4.384584000000000      0.137727000000000      0.663108000000000
H      -3.709062000000000     -0.858337000000000     -0.638701000000000
H      -4.953676000000000      0.329586000000000     -1.003031000000000
H      -3.388647000000000      2.177608000000000     -0.369419000000000
H      -2.722128000000000      1.201821000000000     -1.685647000000000
H      -1.193773000000000      1.750118000000000      0.164613000000000
H       2.018066000000000     -1.544789000000000     -1.883181000000000
H       2.880470000000000     -0.101360000000000     -1.436075000000000
H       3.836922000000000     -1.202033000000000      0.572441000000000
H       2.834381000000000     -2.631281000000000      0.302209000000000
H       4.121302000000000     -2.217226000000000     -0.831462000000000
H       0.512245000000000      0.391394000000000      1.633711000000000
H       2.184859000000000     -0.181277000000000      1.610129000000000
H       3.248186000000000      2.784913000000000      0.249897000000000
H      -2.385806000000000     -1.676734000000000      2.152842000000000
H      -1.435240000000000     -0.214795000000000      2.427313000000000
H      -0.700582000000000     -1.838715000000000      2.620897000000000
H      -1.937377000000000     -3.077157000000000      0.035273000000000
H      -0.661948000000000     -2.559649000000000     -1.086111000000000
H      -0.241882000000000     -3.269698000000000      0.486192000000000
