36
ORCA opt transition state final energy: -20871.738687804533 eV
C       2.674244000000000      1.737239000000000     -0.672374000000000
C       1.182562000000000     -0.052945000000000      0.326317000000000
C       1.000696000000000     -1.356191000000000      0.784002000000000
C       2.033927000000000     -2.273668000000000      0.717842000000000
C       3.266727000000000     -1.893423000000000      0.206311000000000
C       3.476536000000000     -0.592810000000000     -0.239351000000000
N       4.744260000000000     -0.193210000000000     -0.688302000000000
C       2.425488000000000      0.335606000000000     -0.178450000000000
C      -0.168876000000000      1.167324000000000      1.258292000000000
O      -0.710059000000000      0.643595000000000      2.198149000000000
N      -0.941910000000000      1.291058000000000     -0.131776000000000
C      -1.228219000000000      2.670497000000000     -0.525603000000000
C      -2.060193000000000      0.392360000000000     -0.254988000000000
C      -3.165049000000000      0.510141000000000      0.577537000000000
C      -4.227222000000000     -0.366562000000000      0.426099000000000
C      -4.184212000000000     -1.358779000000000     -0.544503000000000
C      -3.073438000000000     -1.477469000000000     -1.365515000000000
C      -2.007611000000000     -0.601033000000000     -1.220266000000000
H       3.526472000000000      2.191787000000000     -0.160355000000000
H       2.892568000000000      1.759226000000000     -1.745766000000000
H       1.808109000000000      2.377690000000000     -0.513081000000000
H       0.051614000000000     -1.630724000000000      1.233413000000000
H       1.893941000000000     -3.287055000000000      1.074331000000000
H       4.082299000000000     -2.607230000000000      0.161827000000000
H       5.346119000000000     -0.961389000000000     -0.940651000000000
H       4.734696000000000      0.511481000000000     -1.408680000000000
H       0.506587000000000      2.031558000000000      1.301981000000000
H       0.099979000000000      0.675199000000000     -0.345930000000000
H      -1.993714000000000      3.108544000000000      0.118651000000000
H      -0.318932000000000      3.265673000000000     -0.452696000000000
H      -1.577233000000000      2.691563000000000     -1.556652000000000
H      -3.180098000000000      1.265797000000000      1.350482000000000
H      -5.088005000000000     -0.281173000000000      1.076230000000000
H      -5.015720000000000     -2.042386000000000     -0.655959000000000
H      -3.032398000000000     -2.253038000000000     -2.118903000000000
H      -1.129324000000000     -0.687372000000000     -1.847993000000000
