17
ORCA opt transition state final energy: -35237.334493977396 eV
C      -2.139204000000000      0.930262000000000      1.075389000000000
N      -1.912630000000000     -0.149763000000000      0.130254000000000
C      -3.016532000000000     -0.352690000000000     -0.794721000000000
O      -0.774952000000000      0.153509000000000     -0.655600000000000
S       0.999361000000000     -0.867393000000000      0.163922000000000
O       0.672842000000000     -0.597919000000000      1.514384000000000
O       0.565043000000000     -1.999574000000000     -0.563081000000000
O       2.524935000000000     -0.766440000000000     -0.119604000000000
Cl      1.453052000000000      1.740072000000000     -0.425879000000000
H      -3.004821000000000      0.668755000000000      1.680735000000000
H      -2.336652000000000      1.885626000000000      0.567402000000000
H      -1.274522000000000      1.029728000000000      1.726930000000000
H      -2.745802000000000     -1.135271000000000     -1.498569000000000
H      -3.877187000000000     -0.682208000000000     -0.214704000000000
H      -3.273779000000000      0.562370000000000     -1.342324000000000
H       2.741112000000000      0.201345000000000     -0.067717000000000
H      -0.498943000000000      1.097643000000000     -0.574099000000000
