28
ORCA opt transition state final energy: -85211.99133441587 eV
C      -1.324163000000000      2.165827000000000     -1.179903000000000
C      -0.515416000000000      1.934097000000000     -0.125035000000000
C      -0.246271000000000      2.976636000000000      0.923360000000000
C      -0.073386000000000      0.598367000000000      0.099025000000000
N       0.909077000000000      0.334433000000000      1.013454000000000
C       1.710022000000000     -0.817958000000000      0.931509000000000
Br      3.213521000000000     -0.642423000000000     -0.368123000000000
C      -1.922133000000000     -0.185005000000000      1.044791000000000
C      -1.499704000000000     -1.509203000000000      1.344677000000000
C      -1.708986000000000     -2.525874000000000      0.462576000000000
C      -2.421871000000000     -2.266012000000000     -0.741873000000000
C      -2.926259000000000     -1.032779000000000     -1.012905000000000
C      -2.776608000000000      0.063509000000000     -0.081876000000000
O      -3.253650000000000      1.200918000000000     -0.313260000000000
H      -1.743903000000000      3.145204000000000     -1.359609000000000
H      -1.478974000000000      1.421961000000000     -1.946998000000000
H      -0.621667000000000      2.663896000000000      1.902412000000000
H      -0.741407000000000      3.909825000000000      0.664485000000000
H       0.822287000000000      3.189795000000000      1.024544000000000
H      -0.148640000000000     -0.121908000000000     -0.707216000000000
H       1.255990000000000      1.106087000000000      1.558526000000000
H       1.135599000000000     -1.664855000000000      0.576198000000000
H       2.191201000000000     -1.040071000000000      1.876286000000000
H      -1.909628000000000      0.568161000000000      1.823675000000000
H      -0.971168000000000     -1.694358000000000      2.273297000000000
H      -1.358459000000000     -3.527300000000000      0.675864000000000
H      -2.578391000000000     -3.076454000000000     -1.444219000000000
H      -3.500789000000000     -0.842214000000000     -1.911273000000000
