29
ORCA opt transition state final energy: -16201.044978588727 eV
C       0.834032000000000      2.420823000000000      0.882484000000000
C       1.302118000000000      1.573157000000000     -0.157319000000000
O       2.164998000000000      0.665201000000000      0.044496000000000
C       2.399736000000000     -0.319789000000000     -1.042919000000000
C       3.041795000000000     -1.528987000000000     -0.426775000000000
N      -0.984854000000000      0.402516000000000      0.368638000000000
C      -1.606074000000000      0.583379000000000     -0.911650000000000
O      -3.018980000000000      0.658641000000000     -0.834188000000000
C      -3.587810000000000     -0.560420000000000     -0.408394000000000
C      -0.439177000000000     -0.792448000000000      0.630627000000000
C       0.006801000000000     -0.973734000000000      2.073182000000000
O      -0.202333000000000     -1.707212000000000     -0.180144000000000
H      -0.151394000000000      1.753137000000000      0.993897000000000
H       0.519761000000000      3.403013000000000      0.543708000000000
H       1.420255000000000      2.402732000000000      1.794571000000000
H       0.872091000000000      1.643724000000000     -1.156022000000000
H       1.424592000000000     -0.565321000000000     -1.459630000000000
H       3.041531000000000      0.186196000000000     -1.763709000000000
H       3.959528000000000     -1.266856000000000      0.099115000000000
H       2.337722000000000     -2.016150000000000      0.244844000000000
H       3.287057000000000     -2.231606000000000     -1.223512000000000
H      -1.323007000000000      1.554788000000000     -1.341268000000000
H      -1.325695000000000     -0.218675000000000     -1.609944000000000
H      -4.669217000000000     -0.441971000000000     -0.449752000000000
H      -3.292364000000000     -0.804859000000000      0.616204000000000
H      -3.285113000000000     -1.387304000000000     -1.061635000000000
H      -0.504474000000000     -0.288227000000000      2.746366000000000
H      -0.172975000000000     -2.003703000000000      2.377003000000000
H       1.084849000000000     -0.797666000000000      2.142695000000000
