16
ORCA opt transition state final energy: -23960.63653988258 eV
C       0.614951000000000      0.332509000000000     -0.383505000000000
C       0.131463000000000      1.730801000000000     -0.713526000000000
C       1.849036000000000      0.278596000000000      0.370424000000000
O       2.546607000000000      0.910574000000000      1.059204000000000
O       2.463009000000000     -1.026889000000000     -0.346295000000000
C      -0.323899000000000     -0.755702000000000     -0.094293000000000
O      -0.067358000000000     -1.716557000000000      0.606055000000000
C      -1.688215000000000     -0.683597000000000     -0.770332000000000
Cl     -2.774470000000000      0.371117000000000      0.180755000000000
H       1.613925000000000     -0.616234000000000     -1.067245000000000
H      -0.311264000000000      2.233000000000000      0.148032000000000
H       0.953949000000000      2.344829000000000     -1.080160000000000
H      -0.624286000000000      1.698944000000000     -1.496524000000000
H       3.372714000000000     -0.839775000000000     -0.623044000000000
H      -2.117740000000000     -1.679864000000000     -0.770894000000000
H      -1.640423000000000     -0.281781000000000     -1.779113000000000
