20
ORCA opt transition state final energy: -14465.560053703095 eV
O       0.573487000000000      1.826284000000000     -1.172347000000000
C       0.804424000000000      1.826034000000000      0.026987000000000
C       1.150167000000000      0.713390000000000      0.879654000000000
N       1.190727000000000     -0.648661000000000      0.503966000000000
C       0.652169000000000     -1.107216000000000     -0.778948000000000
C      -0.850460000000000     -1.321026000000000     -0.641545000000000
N      -1.594995000000000     -0.082314000000000     -0.587199000000000
C      -2.655887000000000      0.081395000000000      0.233996000000000
O      -3.116129000000000     -0.775624000000000      0.957817000000000
O       2.832100000000000     -0.646749000000000      0.204943000000000
H       0.790150000000000      2.782838000000000      0.587451000000000
H       0.993413000000000      0.861522000000000      1.943220000000000
H       1.103932000000000     -2.078586000000000     -0.972793000000000
H       0.884972000000000     -0.428600000000000     -1.597740000000000
H      -1.078897000000000     -1.884673000000000      0.262682000000000
H      -1.169783000000000     -1.926844000000000     -1.494572000000000
H      -1.253454000000000      0.706325000000000     -1.115439000000000
H      -3.074658000000000      1.100481000000000      0.179882000000000
H       2.563776000000000      0.441810000000000      0.636329000000000
H       3.192967000000000     -1.201874000000000      0.914865000000000
