27
ORCA opt transition state final energy: -20250.657420794374 eV
O      -0.326538000000000     -1.516522000000000      1.416620000000000
C       0.658908000000000     -1.391209000000000      0.606721000000000
C       1.449129000000000     -2.417305000000000      0.038382000000000
C       2.745685000000000     -2.079535000000000     -0.208039000000000
C       3.252812000000000     -0.753876000000000     -0.020207000000000
C       2.422945000000000      0.268021000000000      0.308790000000000
C       1.020673000000000      0.014497000000000      0.538055000000000
C       0.094566000000000      0.944317000000000     -0.268348000000000
O      -1.308006000000000      0.600943000000000     -0.093817000000000
C      -1.762807000000000     -0.408262000000000     -0.826468000000000
O      -1.153681000000000     -1.053337000000000     -1.627814000000000
C      -3.188493000000000     -0.637528000000000     -0.536181000000000
N      -4.301995000000000     -0.838524000000000     -0.353846000000000
C       0.182006000000000      2.407885000000000      0.099125000000000
C       0.639723000000000      2.818152000000000      1.272327000000000
C      -0.340777000000000      3.338389000000000     -0.955716000000000
H       0.108222000000000     -0.261895000000000      1.605502000000000
H       1.074876000000000     -3.427709000000000     -0.044487000000000
H       3.435491000000000     -2.849685000000000     -0.532025000000000
H       4.302973000000000     -0.569107000000000     -0.199437000000000
H       2.789322000000000      1.286733000000000      0.328729000000000
H       0.307768000000000      0.819734000000000     -1.333499000000000
H       0.663380000000000      3.871880000000000      1.519053000000000
H       0.997775000000000      2.122183000000000      2.019232000000000
H      -0.308634000000000      4.373201000000000     -0.620434000000000
H      -1.374342000000000      3.090496000000000     -1.207691000000000
H       0.245579000000000      3.252133000000000     -1.873917000000000
