12
ORCA opt transition state final energy: -10822.726795150345 eV
O       2.589511000000000     -0.505657000000000     -0.375679000000000
C       1.498198000000000     -0.462260000000000      0.276083000000000
N       0.916138000000000      0.680136000000000      0.023781000000000
C      -0.343012000000000      1.136763000000000      0.500218000000000
O      -1.413792000000000      0.845150000000000     -0.426803000000000
C      -1.831510000000000     -0.423045000000000     -0.428849000000000
O      -1.412603000000000     -1.296998000000000      0.277637000000000
H       2.053075000000000      0.659192000000000     -0.684725000000000
H       1.139311000000000     -1.259820000000000      0.919465000000000
H      -0.589299000000000      0.693002000000000      1.464807000000000
H      -0.343744000000000      2.219700000000000      0.568851000000000
H      -2.624563000000000     -0.550503000000000     -1.174996000000000
