19
ORCA opt transition state final energy: -11849.99357509752 eV
O       0.506253000000000      1.557699000000000      0.477730000000000
C       0.556373000000000      0.212344000000000      0.589606000000000
C      -0.186884000000000     -0.597694000000000     -0.467667000000000
N      -1.635174000000000     -0.454603000000000     -0.425375000000000
C      -2.226777000000000     -0.900482000000000      0.824135000000000
N      -2.094778000000000      0.861863000000000     -0.725318000000000
N       2.092137000000000      0.139403000000000      0.306934000000000
O       2.700364000000000     -0.883340000000000     -0.444617000000000
H       1.805152000000000      1.250522000000000      0.000428000000000
H       0.374094000000000     -0.185254000000000      1.598900000000000
H       0.140307000000000     -0.259177000000000     -1.458539000000000
H       0.057809000000000     -1.659747000000000     -0.365207000000000
H      -3.308050000000000     -0.916725000000000      0.706293000000000
H      -1.991157000000000     -0.250836000000000      1.677733000000000
H      -1.880061000000000     -1.912269000000000      1.045516000000000
H      -1.437004000000000      1.548872000000000     -0.359736000000000
H      -2.129296000000000      0.951549000000000     -1.733175000000000
H       2.609707000000000      0.156009000000000      1.181985000000000
H       2.373277000000000     -0.753594000000000     -1.343615000000000
