19
ORCA opt transition state final energy: -80527.2211230358 eV
C      -3.448087000000000     -1.111858000000000     -0.666022000000000
C      -2.137536000000000     -1.155894000000000      0.084105000000000
O      -1.588761000000000     -2.211844000000000      0.306001000000000
C      -1.538986000000000      0.137757000000000      0.553871000000000
C      -2.013263000000000      1.380002000000000      0.066047000000000
C      -1.341492000000000      2.542972000000000      0.275577000000000
C       0.686016000000000      1.937657000000000     -0.709036000000000
C       1.069738000000000      0.863956000000000     -0.255494000000000
Br      2.361252000000000     -0.435330000000000     -0.216397000000000
C      -0.369876000000000      0.070551000000000      1.260136000000000
H      -3.815683000000000     -2.127482000000000     -0.782094000000000
H      -4.185560000000000     -0.504055000000000     -0.140350000000000
H      -3.299870000000000     -0.671033000000000     -1.654013000000000
H      -2.824802000000000      1.380192000000000     -0.651298000000000
H      -0.670050000000000      2.676797000000000      1.111256000000000
H      -1.658817000000000      3.451222000000000     -0.220689000000000
H       0.659365000000000      2.832802000000000     -1.284725000000000
H      -0.014975000000000      0.901952000000000      1.850662000000000
H       0.031936000000000     -0.904722000000000      1.498024000000000
