20
ORCA opt transition state final energy: -98457.90824672375 eV
C      -1.841953000000000      0.854493000000000      1.286616000000000
S      -2.607010000000000     -0.227587000000000      0.101405000000000
O      -3.127714000000000      0.311851000000000     -1.090156000000000
O      -3.145050000000000     -1.361833000000000      0.758624000000000
C      -0.924271000000000     -2.192160000000000     -0.904654000000000
C       0.115725000000000     -1.373520000000000     -1.105232000000000
Br     -0.110115000000000      1.615187000000000     -1.205977000000000
C       0.953505000000000     -0.986568000000000      0.063359000000000
O       0.606217000000000     -1.099345000000000      1.204414000000000
O       2.203538000000000     -0.606744000000000     -0.331360000000000
C       2.911621000000000      0.271990000000000      0.438806000000000
O       2.519482000000000      0.873646000000000      1.385120000000000
O       4.129226000000000      0.338714000000000     -0.100908000000000
H      -2.539313000000000      0.827657000000000      2.127298000000000
H      -0.881844000000000      0.401120000000000      1.539804000000000
H      -1.689899000000000      1.796682000000000      0.760577000000000
H      -1.089733000000000     -2.627959000000000      0.071020000000000
H      -1.553544000000000     -2.508566000000000     -1.726034000000000
H       0.402629000000000     -0.992108000000000     -2.071974000000000
H       4.615724000000000      1.000021000000000      0.409412000000000
