27
ORCA opt transition state final energy: -15600.465078354959 eV
C       2.448193000000000     -1.901592000000000     -0.333651000000000
O       2.983633000000000     -0.589331000000000     -0.232403000000000
C       2.141422000000000      0.301372000000000      0.422142000000000
N       1.054765000000000      0.741855000000000     -0.473109000000000
C      -0.101682000000000      1.512661000000000      0.225600000000000
C      -0.656115000000000      2.618310000000000     -0.622156000000000
O      -0.151537000000000      1.440947000000000      1.424302000000000
O      -1.113784000000000      0.026148000000000     -0.645940000000000
N      -2.008837000000000     -0.599738000000000      0.230226000000000
C      -1.318184000000000     -1.666841000000000      0.923949000000000
C      -3.100270000000000     -1.115312000000000     -0.572524000000000
H       3.213452000000000     -2.518384000000000     -0.796950000000000
H       1.546012000000000     -1.928116000000000     -0.951331000000000
H       2.210094000000000     -2.298513000000000      0.657594000000000
H       1.667536000000000     -0.129596000000000      1.304915000000000
H       2.735834000000000      1.164398000000000      0.715822000000000
H       1.418510000000000      1.226002000000000     -1.287829000000000
H      -0.678967000000000      2.350035000000000     -1.675781000000000
H      -0.053844000000000      3.518403000000000     -0.473449000000000
H      -1.669984000000000      2.814050000000000     -0.283277000000000
H       0.292470000000000     -0.051750000000000     -0.740130000000000
H      -2.020091000000000     -2.188168000000000      1.576058000000000
H      -0.878573000000000     -2.394468000000000      0.219454000000000
H      -0.531592000000000     -1.238783000000000      1.544556000000000
H      -3.835602000000000     -1.584213000000000      0.083116000000000
H      -3.573236000000000     -0.288191000000000     -1.098207000000000
H      -2.753964000000000     -1.852397000000000     -1.313578000000000
