25
ORCA opt transition state final energy: -16703.868401334475 eV
C      -0.690545000000000     -0.231865000000000     -0.544124000000000
C      -1.467771000000000      1.006337000000000     -0.970170000000000
O      -1.501920000000000      2.047978000000000     -0.008813000000000
C      -2.204764000000000      1.704514000000000      1.163397000000000
C      -1.381818000000000     -1.188135000000000      0.246126000000000
O      -1.361431000000000     -1.924267000000000      1.148484000000000
O      -2.534004000000000     -1.573424000000000     -0.999761000000000
C       0.765507000000000     -0.088769000000000     -0.251851000000000
C       1.405648000000000      1.148211000000000     -0.324779000000000
C       2.774420000000000      1.249496000000000     -0.116516000000000
C       3.527632000000000      0.126008000000000      0.182508000000000
C       2.899181000000000     -1.108923000000000      0.268389000000000
C       1.536859000000000     -1.213863000000000      0.049331000000000
H      -1.474380000000000     -1.118425000000000     -1.425142000000000
H      -2.490554000000000      0.736570000000000     -1.247594000000000
H      -0.977753000000000      1.438645000000000     -1.841987000000000
H      -2.316209000000000      2.614501000000000      1.748947000000000
H      -1.661452000000000      0.968235000000000      1.765319000000000
H      -3.200081000000000      1.306662000000000      0.929147000000000
H      -2.574012000000000     -2.538456000000000     -1.037775000000000
H       0.831496000000000      2.042170000000000     -0.521545000000000
H       3.250211000000000      2.219955000000000     -0.179824000000000
H       4.593435000000000      0.209818000000000      0.350165000000000
H       3.473630000000000     -1.996577000000000      0.500731000000000
H       1.066685000000000     -2.188165000000000      0.109789000000000
