28
ORCA opt transition state final energy: -21753.09174437348 eV
C      -0.616530000000000      0.696303000000000     -0.494576000000000
C       0.561977000000000     -0.052242000000000      0.944706000000000
O       0.240606000000000      0.198082000000000      2.042835000000000
C       1.908177000000000     -0.263267000000000      0.357266000000000
C       2.960245000000000      0.377517000000000      1.004914000000000
C       4.248722000000000      0.240971000000000      0.512536000000000
C       4.482414000000000     -0.537838000000000     -0.611372000000000
C       3.428401000000000     -1.184242000000000     -1.244041000000000
C       2.136019000000000     -1.046685000000000     -0.764967000000000
C      -1.294817000000000     -0.540527000000000     -0.195127000000000
O      -0.509316000000000     -1.465481000000000      0.196628000000000
C      -2.706859000000000     -0.573707000000000     -0.150561000000000
C      -3.406735000000000     -1.794907000000000      0.095106000000000
N      -3.991778000000000     -2.768277000000000      0.277110000000000
C      -3.371921000000000      0.645593000000000     -0.186092000000000
C      -2.734764000000000      1.876814000000000     -0.316376000000000
C      -1.359239000000000      1.920983000000000     -0.508901000000000
N      -0.708459000000000      3.079735000000000     -0.771298000000000
H       0.187185000000000      0.629868000000000     -1.217667000000000
H       2.761467000000000      0.966157000000000      1.890504000000000
H       5.070220000000000      0.736137000000000      1.013021000000000
H       5.489442000000000     -0.648251000000000     -0.991915000000000
H       3.614503000000000     -1.804764000000000     -2.110444000000000
H       1.307198000000000     -1.563300000000000     -1.228394000000000
H      -4.448182000000000      0.634663000000000     -0.062523000000000
H      -3.317670000000000      2.788081000000000     -0.314182000000000
H      -1.198784000000000      3.953729000000000     -0.713884000000000
H       0.293877000000000      3.109404000000000     -0.729086000000000
