15
ORCA opt transition state final energy: -161740.87655887796 eV
N      -2.818154000000000     -1.757143000000000      0.758533000000000
O      -2.411323000000000     -1.869529000000000     -0.608290000000000
C      -1.070248000000000     -1.846509000000000     -0.809675000000000
O      -0.662419000000000     -1.847075000000000     -1.934275000000000
C      -0.165399000000000     -1.813008000000000      0.383292000000000
C       1.177611000000000     -2.041396000000000      0.152346000000000
Br      2.551575000000000      0.258536000000000     -0.013297000000000
S       0.058906000000000      0.407484000000000      0.695972000000000
O       0.201701000000000      0.543241000000000      2.110568000000000
Br     -1.862184000000000      1.642827000000000      0.234848000000000
H      -3.509174000000000     -2.494935000000000      0.852573000000000
H      -3.320785000000000     -0.873105000000000      0.784730000000000
H      -0.586734000000000     -1.959729000000000      1.366738000000000
H       1.842650000000000     -2.271162000000000      0.969796000000000
H       1.527497000000000     -2.193678000000000     -0.857630000000000
