17
ORCA opt transition state final energy: -156702.26035115964 eV
C      -1.066614000000000      2.265696000000000      0.724827000000000
C      -0.653984000000000      1.271156000000000     -0.341558000000000
S      -0.827418000000000     -0.459380000000000      0.138740000000000
Br     -3.223005000000000     -0.419346000000000     -0.207757000000000
C       0.781646000000000      1.220237000000000     -0.661513000000000
N       1.634163000000000      2.141255000000000     -0.265776000000000
C       1.285154000000000     -0.491584000000000      0.794210000000000
Br      2.993186000000000     -0.816728000000000     -0.148443000000000
H      -2.120337000000000      2.116248000000000      0.951106000000000
H      -0.934680000000000      3.296000000000000      0.383408000000000
H      -0.503109000000000      2.108181000000000      1.647258000000000
H      -1.230587000000000      1.406592000000000     -1.258944000000000
H       1.101127000000000      0.586438000000000     -1.476064000000000
H       1.382959000000000      2.783414000000000      0.469071000000000
H       2.613356000000000      2.027632000000000     -0.480319000000000
H       1.087104000000000     -1.459765000000000      1.241431000000000
H       1.509142000000000      0.222415000000000      1.584894000000000
