13
ORCA opt transition state final energy: -10279.920940909096 eV
O      -3.244300000000000     -0.390712000000000     -0.003059000000000
C      -2.183163000000000      0.154926000000000      0.447251000000000
N      -1.256677000000000      0.024584000000000     -0.459039000000000
N       0.034194000000000      0.565208000000000     -0.466564000000000
C       1.007290000000000     -0.291467000000000      0.193819000000000
C       2.408535000000000      0.121619000000000     -0.193171000000000
O       3.347228000000000      0.070893000000000      0.552794000000000
H      -2.352445000000000     -0.541217000000000     -0.979246000000000
H      -2.112356000000000      0.643482000000000      1.416116000000000
H       0.018060000000000      1.496173000000000     -0.067310000000000
H       0.857816000000000     -1.304376000000000     -0.192151000000000
H       0.926781000000000     -0.333435000000000      1.285631000000000
H       2.512567000000000      0.468882000000000     -1.239551000000000
