10
ORCA opt transition state final energy: -19232.16085466803 eV
N      -2.684941000000000     -1.089829000000000      0.368320000000000
C      -1.728444000000000     -0.587563000000000     -0.025395000000000
C      -0.591124000000000      0.016796000000000     -0.620642000000000
C      -0.376821000000000      1.455448000000000     -0.468818000000000
O      -0.001814000000000      1.150198000000000      0.874835000000000
Cl      2.010027000000000     -0.595917000000000      0.014926000000000
H       0.071743000000000     -0.616318000000000     -1.192135000000000
H       0.435736000000000      1.848279000000000     -1.072269000000000
H      -1.263945000000000      2.079869000000000     -0.472988000000000
H       0.904711000000000      0.674696000000000      0.812386000000000
