22
ORCA opt transition state final energy: -13489.986276575457 eV
N       1.190132000000000      0.919433000000000      0.020279000000000
C       0.027046000000000      1.095269000000000      0.847518000000000
C      -1.273652000000000      1.079455000000000      0.052431000000000
O      -2.171718000000000      1.838299000000000      0.317560000000000
C      -1.388716000000000      0.055649000000000     -1.064961000000000
N      -1.065436000000000     -1.274237000000000     -0.569173000000000
C      -2.141558000000000     -1.845084000000000      0.230754000000000
C       2.038022000000000     -0.073672000000000      0.022120000000000
C       2.072582000000000     -1.264392000000000      0.910706000000000
O       2.891137000000000      0.152776000000000     -0.912357000000000
H       2.062176000000000      1.171440000000000     -0.948644000000000
H      -0.036796000000000      0.292851000000000      1.591377000000000
H       0.059694000000000      2.045467000000000      1.381693000000000
H      -2.400363000000000      0.139954000000000     -1.480920000000000
H      -0.665994000000000      0.328357000000000     -1.837069000000000
H      -0.851781000000000     -1.883007000000000     -1.347191000000000
H      -2.279987000000000     -1.252629000000000      1.137681000000000
H      -3.105776000000000     -1.873591000000000     -0.293691000000000
H      -1.877116000000000     -2.857707000000000      0.533222000000000
H       2.893608000000000     -1.915119000000000      0.625470000000000
H       2.202656000000000     -0.950719000000000      1.947105000000000
H       1.122820000000000     -1.792783000000000      0.826200000000000
