12
ORCA opt transition state final energy: -22555.90366893152 eV
N       1.816744000000000      1.563650000000000      0.221197000000000
C       1.515167000000000      0.305087000000000      0.108927000000000
S       1.837812000000000     -1.170667000000000      0.715790000000000
N       0.468187000000000      0.537723000000000     -1.026487000000000
O      -0.729934000000000     -0.189595000000000     -0.952217000000000
C      -1.510718000000000      0.234408000000000      0.070829000000000
O      -1.296427000000000      1.163411000000000      0.775261000000000
C      -2.689621000000000     -0.632826000000000      0.148069000000000
N      -3.634649000000000     -1.274635000000000      0.235520000000000
H       2.558316000000000      1.830698000000000      0.853440000000000
H       0.727256000000000      1.682668000000000     -0.654206000000000
H       0.853288000000000      0.260517000000000     -1.926694000000000
