27
ORCA opt transition state final energy: -16632.12023960935 eV
O      -1.180217000000000      1.111414000000000      1.321066000000000
C      -0.559276000000000      1.167882000000000      0.113591000000000
C      -0.431402000000000      2.583292000000000     -0.447421000000000
N      -1.731207000000000      0.463134000000000     -0.668994000000000
O      -1.589796000000000     -0.829542000000000     -1.169236000000000
C      -1.588416000000000     -1.789248000000000     -0.069669000000000
N      -2.717538000000000     -1.655539000000000      0.767753000000000
C       0.741628000000000      0.398237000000000     -0.006309000000000
C       1.315635000000000      0.100774000000000     -1.237673000000000
C       2.520735000000000     -0.581972000000000     -1.301860000000000
C       3.167421000000000     -0.962130000000000     -0.133283000000000
C       2.601375000000000     -0.660541000000000      1.096925000000000
C       1.389419000000000      0.013528000000000      1.159839000000000
H      -2.133871000000000      0.600307000000000      0.457998000000000
H       0.232495000000000      3.142295000000000      0.210316000000000
H      -0.021328000000000      2.604366000000000     -1.458893000000000
H      -1.407845000000000      3.072028000000000     -0.427706000000000
H      -2.129734000000000      1.009901000000000     -1.427350000000000
H      -0.665869000000000     -1.650148000000000      0.490472000000000
H      -1.556291000000000     -2.733097000000000     -0.611052000000000
H      -2.523799000000000     -1.393120000000000      1.719115000000000
H      -3.438665000000000     -2.347414000000000      0.671376000000000
H       0.812398000000000      0.385404000000000     -2.154297000000000
H       2.955790000000000     -0.818936000000000     -2.264469000000000
H       4.110274000000000     -1.491689000000000     -0.183527000000000
H       3.104309000000000     -0.951692000000000      2.010505000000000
H       0.916957000000000      0.251036000000000      2.104171000000000
