22
ORCA opt transition state final energy: -27111.38974849935 eV
O      -3.859312000000000     -0.145065000000000      0.708882000000000
C      -2.916841000000000     -0.171430000000000     -0.031113000000000
O      -2.956171000000000      0.127837000000000     -1.330557000000000
C      -1.543065000000000     -0.518063000000000      0.475950000000000
O      -0.667727000000000     -0.825028000000000     -0.640785000000000
C       0.570855000000000     -1.014344000000000     -0.480620000000000
C       1.266577000000000     -1.280494000000000      0.790619000000000
C       2.629805000000000     -0.576470000000000      0.957292000000000
C       3.295595000000000     -0.221004000000000     -0.362819000000000
O       2.434660000000000      0.500333000000000     -1.215786000000000
Cl      0.509913000000000      1.880881000000000      0.622715000000000
H      -3.866570000000000      0.394364000000000     -1.530491000000000
H      -1.612102000000000     -1.381093000000000      1.133293000000000
H      -1.108409000000000      0.361445000000000      0.975670000000000
H       1.073039000000000     -1.197714000000000     -1.421391000000000
H       1.430135000000000     -2.369484000000000      0.736267000000000
H       0.625209000000000     -1.069442000000000      1.641390000000000
H       2.437298000000000      0.339402000000000      1.513041000000000
H       3.290776000000000     -1.212748000000000      1.547550000000000
H       4.208787000000000      0.345502000000000     -0.152642000000000
H       3.596645000000000     -1.121662000000000     -0.908297000000000
H       1.952892000000000      1.186327000000000     -0.690200000000000
