21
ORCA opt transition state final energy: -14030.724659700476 eV
C      -1.033590000000000      0.301922000000000      0.132194000000000
C      -0.718597000000000      1.622624000000000      0.802770000000000
C       0.012597000000000     -0.198837000000000     -0.862835000000000
N       1.208320000000000     -0.691598000000000     -0.208526000000000
C       2.334111000000000      0.061985000000000     -0.077072000000000
C       3.490884000000000     -0.610438000000000      0.626320000000000
O       2.414151000000000      1.201293000000000     -0.496390000000000
C      -2.380368000000000      0.112511000000000     -0.221225000000000
O      -3.478273000000000      0.481690000000000     -0.251602000000000
O      -2.196037000000000     -1.720889000000000     -0.110377000000000
H      -1.425612000000000     -1.002520000000000      0.571426000000000
H      -1.488370000000000      1.899870000000000      1.522369000000000
H      -0.605913000000000      2.432751000000000      0.078756000000000
H       0.229096000000000      1.532923000000000      1.332912000000000
H       0.330533000000000      0.624852000000000     -1.503400000000000
H      -0.400165000000000     -0.986567000000000     -1.489816000000000
H       1.191703000000000     -1.615580000000000      0.185703000000000
H       3.756307000000000     -0.016270000000000      1.499460000000000
H       3.277271000000000     -1.632273000000000      0.936893000000000
H       4.347851000000000     -0.610097000000000     -0.045347000000000
H      -2.959139000000000     -2.028493000000000      0.394339000000000
