23
ORCA opt transition state final energy: -16543.082148886457 eV
N       0.311752000000000      2.175136000000000     -0.881646000000000
C       1.253662000000000      2.344769000000000      0.231218000000000
C       1.069558000000000      0.932812000000000      0.484079000000000
C       2.132399000000000     -0.049666000000000      0.162860000000000
O       1.840151000000000     -1.321422000000000      0.648121000000000
C       1.976587000000000     -2.356259000000000     -0.314973000000000
O      -0.266043000000000     -0.366402000000000     -0.994268000000000
C      -1.248224000000000     -1.039805000000000     -0.479509000000000
N      -2.351719000000000     -0.095134000000000      0.243787000000000
O      -3.367494000000000     -0.613785000000000      0.636516000000000
O      -2.097186000000000      1.096284000000000      0.391565000000000
H       0.603446000000000      1.539807000000000     -1.613835000000000
H      -0.632476000000000      1.910147000000000     -0.589489000000000
H       2.237436000000000      2.653110000000000     -0.113502000000000
H       0.854729000000000      3.033450000000000      0.968071000000000
H       0.261546000000000      0.618839000000000      1.127053000000000
H       2.333246000000000     -0.036538000000000     -0.914019000000000
H       3.043660000000000      0.328048000000000      0.660133000000000
H       3.017595000000000     -2.448909000000000     -0.642250000000000
H       1.325741000000000     -2.164185000000000     -1.169171000000000
H       1.680320000000000     -3.279912000000000      0.176445000000000
H      -1.019928000000000     -1.702736000000000      0.378280000000000
H      -1.911947000000000     -1.579641000000000     -1.173858000000000
