10
ORCA opt transition state final energy: -12262.860612924178 eV
O      -0.600735000000000      1.619115000000000      0.001341000000000
C      -0.120229000000000      0.456869000000000      0.000454000000000
N       1.188179000000000      0.497513000000000     -0.002146000000000
C       2.061514000000000     -0.589315000000000     -0.000658000000000
O       3.250658000000000     -0.475380000000000      0.000990000000000
O      -0.859468000000000     -0.672944000000000      0.002810000000000
C      -2.164088000000000     -0.531590000000000     -0.000930000000000
N      -3.310522000000000     -0.498001000000000     -0.001274000000000
H       0.683570000000000      1.777142000000000     -0.000736000000000
H       1.549821000000000     -1.567509000000000     -0.000631000000000
