23
ORCA opt transition state final energy: -18126.031632290276 eV
C       4.025554000000000     -0.529293000000000      0.431709000000000
O       3.060533000000000      0.367170000000000     -0.124254000000000
C       1.821886000000000     -0.157253000000000     -0.261073000000000
O       1.538500000000000     -1.285785000000000      0.075829000000000
N       0.930057000000000      0.728484000000000     -0.799575000000000
C      -0.646107000000000      0.947033000000000      0.373488000000000
C      -1.088290000000000      2.330032000000000      0.058892000000000
O      -0.567103000000000      0.335213000000000      1.367245000000000
O      -1.310968000000000      0.031099000000000     -0.995772000000000
C      -1.666303000000000     -1.271464000000000     -0.592163000000000
C      -2.948164000000000     -1.250080000000000      0.194850000000000
O      -3.553864000000000     -0.252810000000000      0.474245000000000
H       3.725885000000000     -0.840981000000000      1.430624000000000
H       4.134114000000000     -1.412164000000000     -0.196176000000000
H       4.957074000000000      0.027657000000000      0.469311000000000
H       1.366903000000000      1.595581000000000     -1.083995000000000
H      -2.140285000000000      2.390525000000000      0.337081000000000
H      -0.504389000000000      3.024155000000000      0.661095000000000
H      -0.980546000000000      2.550659000000000     -0.997698000000000
H      -0.227831000000000      0.159216000000000     -1.272965000000000
H      -0.880587000000000     -1.731552000000000      0.018585000000000
H      -1.808826000000000     -1.899474000000000     -1.476898000000000
H      -3.304412000000000     -2.250407000000000      0.511316000000000
