18
ORCA opt transition state final energy: -22876.243252988923 eV
O      -0.283161000000000     -1.593624000000000     -0.624595000000000
C      -1.282274000000000     -0.963920000000000      0.087765000000000
C      -2.282030000000000     -0.221538000000000     -0.807024000000000
C      -3.196274000000000      0.604103000000000     -0.020044000000000
N      -3.871095000000000      1.251470000000000      0.646336000000000
C      -0.279513000000000     -0.129425000000000      0.747933000000000
N       1.643671000000000     -0.173823000000000     -0.037749000000000
C       2.474605000000000     -1.199331000000000      0.588463000000000
Cl      2.467697000000000      1.341019000000000     -0.189813000000000
H       1.306742000000000     -0.476179000000000     -0.950332000000000
H      -1.835979000000000     -1.618392000000000      0.778295000000000
H      -1.733956000000000      0.410425000000000     -1.508420000000000
H      -2.846233000000000     -0.952057000000000     -1.387031000000000
H       0.104212000000000     -0.452032000000000      1.705086000000000
H      -0.224383000000000      0.935933000000000      0.552608000000000
H       2.710700000000000     -0.893783000000000      1.606819000000000
H       1.873635000000000     -2.106652000000000      0.590491000000000
H       3.400228000000000     -1.365223000000000      0.037091000000000
