13
ORCA opt transition state final energy: -80409.85479540133 eV
C       2.352111000000000     -1.324583000000000     -0.689568000000000
C       2.519208000000000     -0.298299000000000      0.263655000000000
O       3.666887000000000     -0.399959000000000      0.818948000000000
C       1.642047000000000      0.860069000000000      0.624466000000000
C       0.199811000000000      0.615637000000000      0.246135000000000
O      -0.319994000000000      0.942563000000000     -0.774826000000000
O      -0.405251000000000     -0.064520000000000      1.253672000000000
Br     -2.141128000000000     -0.528541000000000      0.938475000000000
H       3.736706000000000     -1.218088000000000     -0.171358000000000
H       2.333626000000000     -2.307013000000000     -0.219601000000000
H       1.687227000000000     -1.221071000000000     -1.538021000000000
H       1.988246000000000      1.739271000000000      0.079374000000000
H       1.760753000000000      1.046622000000000      1.691409000000000
