15
ORCA opt transition state final energy: -8837.918759401924 eV
O       1.635938000000000     -0.934280000000000     -0.265848000000000
C       2.264304000000000      0.268878000000000      0.034085000000000
C       1.007657000000000      0.994305000000000     -0.115372000000000
O      -0.491736000000000     -0.298315000000000      0.707749000000000
C      -1.562997000000000     -0.577263000000000     -0.197964000000000
N      -2.592035000000000      0.413191000000000     -0.168875000000000
H       0.319530000000000     -0.870718000000000      0.443056000000000
H       3.030354000000000      0.566204000000000     -0.694994000000000
H       2.690877000000000      0.329224000000000      1.042923000000000
H       0.561760000000000      1.615187000000000      0.646487000000000
H       0.616918000000000      1.071792000000000     -1.119747000000000
H      -1.165874000000000     -0.658751000000000     -1.213965000000000
H      -1.994896000000000     -1.541108000000000      0.080323000000000
H      -2.971938000000000      0.513935000000000      0.763321000000000
H      -2.253932000000000      1.315717000000000     -0.474998000000000
