31
ORCA opt transition state final energy: -23937.278278764432 eV
O      -0.454165000000000     -0.604799000000000      1.957008000000000
C       0.165344000000000     -0.322463000000000      0.880559000000000
C       1.250861000000000     -1.020344000000000      0.292473000000000
C       2.149000000000000     -0.258507000000000     -0.398863000000000
C       3.421097000000000     -0.878065000000000     -0.927003000000000
C       4.622376000000000     -0.281339000000000     -0.228851000000000
O       5.289432000000000      0.623083000000000     -0.649980000000000
O       4.847046000000000     -0.871727000000000      0.959119000000000
C       1.953929000000000      1.149396000000000     -0.614495000000000
C       0.811566000000000      1.766308000000000     -0.225792000000000
C      -0.214217000000000      1.003953000000000      0.433126000000000
C      -1.631744000000000      1.348759000000000      0.033987000000000
O      -1.923752000000000      2.506513000000000     -0.154892000000000
C      -2.653980000000000      0.264747000000000     -0.117496000000000
C      -3.972497000000000      0.574206000000000      0.202288000000000
C      -4.967855000000000     -0.373733000000000      0.037149000000000
C      -4.654721000000000     -1.626410000000000     -0.473652000000000
C      -3.345448000000000     -1.929591000000000     -0.817223000000000
C      -2.345032000000000     -0.988273000000000     -0.631762000000000
H      -0.670836000000000      0.748570000000000      1.734075000000000
H       1.439681000000000     -2.056641000000000      0.539926000000000
H       3.408973000000000     -1.955603000000000     -0.775752000000000
H       3.524183000000000     -0.656080000000000     -1.988522000000000
H       5.598262000000000     -0.413494000000000      1.364990000000000
H       2.721677000000000      1.695139000000000     -1.147601000000000
H       0.604585000000000      2.795728000000000     -0.486497000000000
H      -4.200031000000000      1.563112000000000      0.577494000000000
H      -5.989720000000000     -0.135238000000000      0.301288000000000
H      -5.433635000000000     -2.365658000000000     -0.608995000000000
H      -3.102646000000000     -2.900053000000000     -1.229651000000000
H      -1.326424000000000     -1.227076000000000     -0.912624000000000
