28
ORCA opt transition state final energy: -30052.360027615046 eV
C      -3.234244000000000      2.032280000000000     -1.052985000000000
C      -2.041442000000000      2.014826000000000     -0.123497000000000
O      -1.062757000000000      1.052962000000000     -0.567657000000000
C      -1.157554000000000     -0.185530000000000     -0.005527000000000
N      -1.239911000000000     -1.183451000000000     -0.956666000000000
O      -0.781860000000000     -2.325549000000000     -0.466483000000000
S       0.054203000000000     -0.401821000000000      1.408951000000000
O      -0.164557000000000      0.836977000000000      2.188756000000000
C       1.538199000000000     -0.145038000000000      0.440164000000000
C       2.254982000000000     -1.243750000000000     -0.012103000000000
C       3.411929000000000     -1.037612000000000     -0.748925000000000
C       3.843962000000000      0.255114000000000     -1.011300000000000
C       3.128963000000000      1.345458000000000     -0.532220000000000
C       1.969344000000000      1.149875000000000      0.201002000000000
O      -3.201115000000000     -1.274545000000000     -0.245905000000000
H      -3.718425000000000      1.056267000000000     -1.061073000000000
H      -3.952436000000000      2.784037000000000     -0.720070000000000
H      -2.920326000000000      2.278680000000000     -2.067609000000000
H      -2.322296000000000      1.785028000000000      0.905206000000000
H      -1.518278000000000      2.970534000000000     -0.120520000000000
H      -0.956656000000000     -2.975108000000000     -1.162678000000000
H       1.917130000000000     -2.246454000000000      0.218230000000000
H       3.982623000000000     -1.884662000000000     -1.106485000000000
H       4.750369000000000      0.413798000000000     -1.581125000000000
H       3.478011000000000      2.350593000000000     -0.729413000000000
H       1.399541000000000      1.976432000000000      0.603708000000000
H      -2.250604000000000     -0.442820000000000      0.466640000000000
H      -4.067472000000000     -1.705720000000000     -0.310024000000000
