24
ORCA opt transition state final energy: -14552.089979296796 eV
O       0.927682000000000      1.775493000000000      0.440934000000000
C       0.549326000000000      0.542659000000000      0.351402000000000
C       1.727478000000000     -0.282956000000000      0.497888000000000
N       1.595293000000000     -1.553025000000000      1.158567000000000
N       2.512326000000000     -0.361045000000000     -0.722253000000000
C       3.839216000000000      0.233357000000000     -0.699179000000000
C      -0.858074000000000      0.216866000000000      0.145931000000000
C      -1.243334000000000     -1.088739000000000     -0.163191000000000
C      -2.569792000000000     -1.365299000000000     -0.444390000000000
C      -3.513641000000000     -0.345997000000000     -0.415001000000000
C      -3.136458000000000      0.952957000000000     -0.099612000000000
C      -1.812247000000000      1.234476000000000      0.188505000000000
H       1.948189000000000      1.191603000000000      0.826679000000000
H       1.931072000000000     -1.526076000000000      2.110289000000000
H       2.108090000000000     -2.259644000000000      0.645389000000000
H       1.995368000000000     -0.070745000000000     -1.540185000000000
H       4.396406000000000     -0.178263000000000      0.142536000000000
H       3.825711000000000      1.326093000000000     -0.595891000000000
H       4.372486000000000     -0.023437000000000     -1.616092000000000
H      -0.497658000000000     -1.871120000000000     -0.157216000000000
H      -2.871848000000000     -2.376147000000000     -0.684442000000000
H      -4.550997000000000     -0.567161000000000     -0.632069000000000
H      -3.876704000000000      1.741591000000000     -0.072240000000000
H      -1.497080000000000      2.237349000000000      0.443010000000000
