21
ORCA opt transition state final energy: -36337.175118147396 eV
C       1.714406000000000      2.310040000000000     -0.751150000000000
C       2.207470000000000      1.560783000000000      0.468011000000000
N       1.082344000000000      0.756297000000000      1.034478000000000
C       1.306771000000000     -0.447504000000000      1.386472000000000
O       1.848556000000000     -1.334389000000000      1.864628000000000
S      -0.884450000000000     -1.631758000000000      0.658078000000000
C      -1.765553000000000     -0.714221000000000     -0.633192000000000
C      -2.163918000000000      0.672044000000000     -0.232074000000000
O      -1.473001000000000      1.458035000000000      0.385824000000000
O      -3.379028000000000      1.007708000000000     -0.660731000000000
Cl      1.548059000000000     -1.249453000000000     -1.446787000000000
H       2.527068000000000      2.915870000000000     -1.150767000000000
H       1.400617000000000      1.597107000000000     -1.512707000000000
H       0.885587000000000      2.972702000000000     -0.498532000000000
H       2.996277000000000      0.863376000000000      0.192088000000000
H       2.562037000000000      2.228639000000000      1.252336000000000
H       0.103203000000000      1.008381000000000      0.794931000000000
H      -2.639645000000000     -1.266660000000000     -0.966078000000000
H      -1.060318000000000     -0.620241000000000     -1.468685000000000
H      -3.536292000000000      1.929201000000000     -0.402264000000000
H       0.225288000000000     -1.822139000000000     -0.228852000000000
