23
ORCA opt transition state final energy: -15532.998236603344 eV
C       1.644980000000000     -0.881056000000000     -0.341011000000000
C       2.681693000000000     -0.755952000000000      0.754453000000000
C       0.863193000000000      0.207361000000000     -0.863096000000000
C      -0.431792000000000     -1.431750000000000     -0.238184000000000
O      -0.786208000000000     -2.019007000000000     -1.192526000000000
C      -1.101684000000000     -0.876818000000000      1.024097000000000
N      -2.404643000000000     -0.351131000000000      0.777990000000000
C      -2.444070000000000      0.842151000000000     -0.058923000000000
N       0.727728000000000      1.429022000000000     -0.188718000000000
O       0.945205000000000      1.474344000000000      1.030710000000000
O       0.349533000000000      2.402373000000000     -0.829933000000000
H       0.818345000000000     -1.740968000000000      0.227685000000000
H       1.939225000000000     -1.551693000000000     -1.146940000000000
H       3.442542000000000     -0.046485000000000      0.422787000000000
H       2.261876000000000     -0.369156000000000      1.676136000000000
H       3.155403000000000     -1.720278000000000      0.932122000000000
H       0.659552000000000      0.288194000000000     -1.917291000000000
H      -1.166942000000000     -1.733378000000000      1.699941000000000
H      -0.442509000000000     -0.130728000000000      1.466118000000000
H      -3.027258000000000     -1.066960000000000      0.429144000000000
H      -2.028444000000000      0.688799000000000     -1.061814000000000
H      -3.478411000000000      1.166114000000000     -0.158095000000000
H      -1.883783000000000      1.642792000000000      0.422980000000000
