21
ORCA opt transition state final energy: -13565.395030338483 eV
O      -0.164756000000000     -0.251030000000000      0.809351000000000
C      -0.862103000000000      0.849650000000000      0.402329000000000
C       0.288827000000000      1.451515000000000     -0.270946000000000
O       1.769436000000000     -0.014370000000000     -0.636264000000000
C       2.913576000000000      0.142990000000000      0.176852000000000
O       3.647963000000000     -1.039185000000000      0.256230000000000
O      -1.893070000000000      0.645465000000000     -0.528871000000000
C      -3.013282000000000     -0.050892000000000      0.011720000000000
C      -2.894013000000000     -1.554990000000000     -0.144591000000000
H       1.041772000000000     -0.471827000000000     -0.082631000000000
H      -1.251493000000000      1.438253000000000      1.250841000000000
H       0.329360000000000      1.500945000000000     -1.348199000000000
H       0.972031000000000      2.063948000000000      0.298435000000000
H       2.624105000000000      0.386629000000000      1.201454000000000
H       3.499794000000000      0.956723000000000     -0.261034000000000
H       3.919098000000000     -1.282649000000000     -0.635668000000000
H      -3.885080000000000      0.322952000000000     -0.527551000000000
H      -3.133259000000000      0.219147000000000      1.067715000000000
H      -3.802534000000000     -2.040862000000000      0.217424000000000
H      -2.039668000000000     -1.929711000000000      0.415046000000000
H      -2.761763000000000     -1.813194000000000     -1.195664000000000
