29
ORCA opt transition state final energy: -31090.94472096417 eV
C       4.190385000000000      1.858924000000000     -0.323499000000000
O       3.759951000000000      0.592660000000000      0.196262000000000
C       2.711255000000000      0.053830000000000     -0.432561000000000
O       2.156870000000000      0.545594000000000     -1.376600000000000
C       2.344361000000000     -1.260643000000000      0.229109000000000
N       1.239160000000000     -1.857394000000000     -0.510360000000000
C      -0.037508000000000     -1.386071000000000     -0.268930000000000
S      -0.275103000000000     -0.069489000000000      0.932906000000000
O      -0.342848000000000     -0.690814000000000      2.283119000000000
C      -1.947468000000000      0.294599000000000      0.406892000000000
C      -2.990677000000000     -0.095771000000000      1.226330000000000
C      -4.291587000000000      0.210885000000000      0.848879000000000
C      -4.531177000000000      0.901713000000000     -0.329767000000000
C      -3.471289000000000      1.296899000000000     -1.137751000000000
C      -2.169298000000000      0.999853000000000     -0.768052000000000
O       1.005074000000000     -3.296362000000000      0.492991000000000
H       5.032183000000000      2.156452000000000      0.292928000000000
H       3.385004000000000      2.587342000000000     -0.252528000000000
H       4.491237000000000      1.758036000000000     -1.364464000000000
H       2.118833000000000     -1.082572000000000      1.284472000000000
H       3.204791000000000     -1.924443000000000      0.180106000000000
H      -0.669535000000000     -1.338633000000000     -1.149766000000000
H      -2.765785000000000     -0.625219000000000      2.143619000000000
H      -5.118762000000000     -0.089240000000000      1.479011000000000
H      -5.546373000000000      1.140700000000000     -0.618875000000000
H      -3.660061000000000      1.843124000000000     -2.052712000000000
H      -1.333059000000000      1.312246000000000     -1.383413000000000
H      -0.042986000000000     -2.621712000000000      0.417562000000000
H       0.967543000000000     -4.021511000000000     -0.150159000000000
