20
ORCA opt transition state final energy: -17733.599754377785 eV
O       3.830669000000000     -0.640792000000000      0.857359000000000
N       2.883896000000000      0.230403000000000      0.570108000000000
O       3.383160000000000      1.040931000000000     -0.305742000000000
O       1.612174000000000     -0.198390000000000     -0.932877000000000
C       0.323958000000000     -0.269859000000000     -0.608420000000000
C      -0.321179000000000     -1.510369000000000     -0.555044000000000
C      -1.655452000000000     -1.590105000000000     -0.195656000000000
C      -2.404839000000000     -0.460148000000000      0.121168000000000
C      -3.855069000000000     -0.519464000000000      0.504338000000000
C      -1.734345000000000      0.751904000000000      0.057893000000000
F      -2.427532000000000      1.874555000000000      0.357886000000000
C      -0.408076000000000      0.880181000000000     -0.288093000000000
H       3.457248000000000     -1.161619000000000      1.587098000000000
H       2.515473000000000      0.985229000000000     -0.913113000000000
H       0.244154000000000     -2.396711000000000     -0.811230000000000
H      -2.141402000000000     -2.558444000000000     -0.163148000000000
H      -4.471171000000000      0.055805000000000     -0.188418000000000
H      -4.207071000000000     -1.549967000000000      0.501082000000000
H      -4.020067000000000     -0.103183000000000      1.499296000000000
H       0.049670000000000      1.860332000000000     -0.319375000000000
