27
ORCA opt transition state final energy: -15726.084611981898 eV
C       2.017612000000000      0.752394000000000     -0.027299000000000
O       1.345915000000000      1.583286000000000     -0.910300000000000
C       0.637071000000000      2.637303000000000     -0.271428000000000
C       1.848955000000000     -0.636412000000000     -0.199131000000000
C       2.839971000000000     -1.561610000000000      0.400571000000000
C       0.739897000000000     -1.161225000000000     -1.036906000000000
C      -0.602473000000000     -0.687661000000000     -0.521103000000000
C      -1.708463000000000     -0.516080000000000     -1.340318000000000
C      -2.921182000000000     -0.111629000000000     -0.806017000000000
C      -3.011083000000000      0.139357000000000      0.561226000000000
C      -1.911018000000000     -0.006542000000000      1.385479000000000
C      -0.674901000000000     -0.420856000000000      0.860846000000000
O       0.421596000000000     -0.519403000000000      1.584584000000000
H       1.345559000000000      0.489671000000000      0.994986000000000
H       3.002834000000000      1.102787000000000      0.288052000000000
H       0.209376000000000      3.250535000000000     -1.060652000000000
H      -0.165975000000000      2.240124000000000      0.355573000000000
H       1.310155000000000      3.248757000000000      0.337321000000000
H       2.349936000000000     -2.433962000000000      0.824097000000000
H       3.503538000000000     -1.892419000000000     -0.406560000000000
H       3.445137000000000     -1.070000000000000      1.159820000000000
H       0.887072000000000     -0.764676000000000     -2.047015000000000
H       0.791962000000000     -2.251212000000000     -1.076220000000000
H      -1.621504000000000     -0.706234000000000     -2.404626000000000
H      -3.787237000000000      0.004090000000000     -1.443699000000000
H      -3.954826000000000      0.459481000000000      0.986228000000000
H      -1.970883000000000      0.202790000000000      2.446000000000000
