20
ORCA opt transition state final energy: -11877.372965959043 eV
O      -1.005795000000000     -0.828068000000000     -1.223744000000000
C      -1.748417000000000     -0.715123000000000     -0.080893000000000
N      -2.825224000000000      0.261526000000000     -0.112967000000000
C      -0.658367000000000     -0.339695000000000      0.854948000000000
C      -0.587612000000000      0.943490000000000      1.548674000000000
N       1.191675000000000      0.172266000000000     -0.550845000000000
C       1.458879000000000      1.560858000000000     -0.898278000000000
C       2.182245000000000     -0.559161000000000     -0.043445000000000
N       2.996461000000000     -1.200082000000000      0.468037000000000
H       0.370991000000000     -0.329459000000000     -1.057055000000000
H      -2.180194000000000     -1.674458000000000      0.259296000000000
H      -3.703966000000000     -0.198402000000000     -0.309892000000000
H      -2.642827000000000      0.887661000000000     -0.890696000000000
H      -0.002157000000000     -1.143333000000000      1.170753000000000
H      -1.309077000000000      0.838996000000000      2.373145000000000
H      -0.983004000000000      1.754520000000000      0.938070000000000
H       0.394114000000000      1.167449000000000      1.956717000000000
H       2.231404000000000      1.646472000000000     -1.664156000000000
H       0.536053000000000      1.988336000000000     -1.286053000000000
H       1.773270000000000      2.127895000000000     -0.020097000000000
