26
ORCA opt transition state final energy: -19652.472729103185 eV
O       2.177966000000000     -1.604619000000000     -0.584508000000000
N       0.818609000000000     -1.794398000000000     -0.490732000000000
O       0.639083000000000     -2.726375000000000      0.437062000000000
N       0.174323000000000     -0.560481000000000      0.671727000000000
C       1.158188000000000      0.354443000000000      1.187740000000000
O       1.349286000000000      1.538423000000000      0.441475000000000
O       2.024875000000000      1.215439000000000     -0.779400000000000
C       3.348410000000000      1.703385000000000     -0.633930000000000
C      -1.112381000000000     -0.084934000000000      0.285281000000000
C      -1.544251000000000      1.219353000000000      0.510419000000000
C      -2.833148000000000      1.591320000000000      0.155246000000000
C      -3.694160000000000      0.681216000000000     -0.435535000000000
C      -3.261089000000000     -0.618041000000000     -0.661932000000000
C      -1.982687000000000     -1.005213000000000     -0.301108000000000
H       2.252742000000000     -0.943134000000000     -1.290585000000000
H       0.223730000000000     -1.772071000000000      1.095783000000000
H       2.096341000000000     -0.197579000000000      1.281963000000000
H       0.851984000000000      0.717406000000000      2.172190000000000
H       3.832061000000000      1.502288000000000     -1.589470000000000
H       3.878165000000000      1.179742000000000      0.165525000000000
H       3.341339000000000      2.776294000000000     -0.441766000000000
H      -0.885818000000000      1.952329000000000      0.950303000000000
H      -3.159386000000000      2.606768000000000      0.339556000000000
H      -4.695506000000000      0.979955000000000     -0.716200000000000
H      -3.925162000000000     -1.340647000000000     -1.118133000000000
H      -1.651971000000000     -2.021560000000000     -0.463649000000000
