14
ORCA opt transition state final energy: -15023.127149547414 eV
N      -0.163623000000000      2.907528000000000     -0.011388000000000
C       0.031778000000000      1.795801000000000     -0.210584000000000
C       0.273563000000000      0.370474000000000     -0.461512000000000
C      -0.705923000000000     -0.518175000000000      0.302201000000000
O      -1.909753000000000     -0.385103000000000     -0.434710000000000
F      -2.852464000000000     -1.153505000000000      0.291176000000000
N       1.706810000000000      0.140758000000000     -0.095967000000000
O       1.816442000000000     -0.265727000000000      1.162630000000000
O       1.942349000000000     -1.438555000000000     -0.648943000000000
H       0.191589000000000      0.193960000000000     -1.534225000000000
H      -0.365830000000000     -1.553302000000000      0.284604000000000
H      -0.840367000000000     -0.177148000000000      1.326168000000000
H       2.067410000000000     -1.363878000000000      0.530488000000000
H       2.809580000000000     -1.404387000000000     -1.081777000000000
