16
ORCA opt transition state final energy: -11349.985502577056 eV
N      -2.355186000000000      0.889000000000000      0.692211000000000
C      -1.321070000000000      0.297880000000000      0.696532000000000
C      -0.109991000000000     -0.265487000000000      1.309938000000000
C       0.869055000000000     -0.803936000000000      0.263300000000000
O       1.030415000000000     -1.988405000000000      0.138922000000000
C       1.655180000000000      0.209767000000000     -0.542542000000000
N       1.041351000000000      1.523334000000000     -0.536696000000000
O      -1.312695000000000     -0.053606000000000     -1.158253000000000
H      -0.397259000000000     -1.093203000000000      1.957487000000000
H       0.350303000000000      0.534366000000000      1.892190000000000
H       1.823434000000000     -0.234851000000000     -1.527841000000000
H       2.631190000000000      0.268518000000000     -0.049137000000000
H       1.709030000000000      2.242066000000000     -0.775322000000000
H       0.279191000000000      1.547060000000000     -1.203490000000000
H      -1.461668000000000     -0.963040000000000     -1.448635000000000
H      -2.325390000000000      0.589298000000000     -0.507194000000000
