16
ORCA opt transition state final energy: -81374.174241122 eV
N      -3.413765000000000     -2.066044000000000     -0.555848000000000
C      -3.043114000000000     -1.194312000000000      0.098379000000000
C      -2.585166000000000     -0.085054000000000      0.892095000000000
N      -1.422726000000000      0.589913000000000      0.505557000000000
C      -0.713385000000000      0.089960000000000     -0.651605000000000
O       0.325557000000000      0.950742000000000     -1.020939000000000
C       1.344311000000000      1.071505000000000     -0.096461000000000
Br      2.453207000000000     -0.552969000000000      0.023957000000000
O      -2.279611000000000      1.916502000000000     -0.181622000000000
H      -2.708294000000000     -0.182712000000000      1.963394000000000
H      -0.328666000000000     -0.889613000000000     -0.342608000000000
H      -1.354516000000000     -0.027206000000000     -1.524137000000000
H       2.007963000000000      1.857643000000000     -0.433591000000000
H       0.983199000000000      1.242410000000000      0.914390000000000
H      -3.066071000000000      1.168997000000000      0.377061000000000
H      -2.057203000000000      2.697847000000000      0.349038000000000
