28
ORCA opt transition state final energy: -27669.93139453989 eV
C       2.517082000000000      0.495781000000000      0.826408000000000
O       2.318826000000000     -0.679162000000000      0.046987000000000
C       2.203192000000000     -0.434167000000000     -1.331311000000000
C       0.864006000000000      0.211322000000000     -1.708813000000000
C      -0.249455000000000     -0.702855000000000     -1.278372000000000
O      -0.442689000000000     -1.811088000000000     -1.677216000000000
O      -1.030552000000000     -0.134752000000000     -0.298614000000000
C      -1.944962000000000     -1.002269000000000      0.437413000000000
C      -1.193861000000000     -2.024367000000000      1.284679000000000
N      -0.121725000000000     -1.487705000000000      2.097338000000000
C      -1.861469000000000      1.652185000000000     -0.737450000000000
Cl     -0.918264000000000      1.949213000000000      1.642252000000000
H       3.341522000000000      1.089861000000000      0.417628000000000
H       2.782760000000000      0.164416000000000      1.827876000000000
H       1.611937000000000      1.105438000000000      0.893732000000000
H       2.285835000000000     -1.401227000000000     -1.826333000000000
H       3.018101000000000      0.211148000000000     -1.679989000000000
H       0.765578000000000      1.187621000000000     -1.238119000000000
H       0.819923000000000      0.323259000000000     -2.793772000000000
H      -2.626385000000000     -1.478316000000000     -0.268706000000000
H      -2.469261000000000     -0.299474000000000      1.080996000000000
H      -1.958458000000000     -2.483247000000000      1.921236000000000
H      -0.798505000000000     -2.817769000000000      0.652104000000000
H      -0.359808000000000     -0.565100000000000      2.449394000000000
H       0.715334000000000     -1.381038000000000      1.537483000000000
H      -2.723886000000000      1.740080000000000     -0.100096000000000
H      -1.997937000000000      1.139515000000000     -1.678834000000000
H      -1.176408000000000      2.480796000000000     -0.714122000000000
