18
ORCA opt transition state final energy: -34253.54043642315 eV
C       1.847219000000000     -1.875691000000000      0.836375000000000
C       1.757281000000000     -0.641176000000000      0.014694000000000
Cl      0.020501000000000     -1.180755000000000     -1.471810000000000
C       1.246699000000000      0.542443000000000      0.551658000000000
C       1.495688000000000      1.771473000000000     -0.130775000000000
N       1.683072000000000      2.754097000000000     -0.698994000000000
S      -1.147078000000000      0.230311000000000      0.428446000000000
C      -2.549104000000000     -0.203930000000000     -0.594565000000000
O      -1.241741000000000      1.653725000000000      0.548374000000000
O      -1.115997000000000     -0.679599000000000      1.534286000000000
H       1.950352000000000     -2.762496000000000      0.218022000000000
H       0.983207000000000     -1.975621000000000      1.490901000000000
H       2.739960000000000     -1.784107000000000      1.464737000000000
H       2.382277000000000     -0.577550000000000     -0.864904000000000
H       1.078669000000000      0.602610000000000      1.618867000000000
H      -2.545354000000000     -1.281933000000000     -0.704236000000000
H      -2.422608000000000      0.308505000000000     -1.542202000000000
H      -3.414174000000000      0.169063000000000     -0.045863000000000
