24
ORCA opt transition state final energy: -85587.7337033064 eV
O      -0.054858000000000      3.068594000000000     -0.450601000000000
N       0.314024000000000      1.876374000000000      0.200306000000000
C       1.768932000000000      1.791129000000000      0.127074000000000
O       2.325268000000000      0.874081000000000      1.056285000000000
C       1.785754000000000     -0.370565000000000      1.090637000000000
Br      2.176515000000000     -1.430235000000000     -0.577563000000000
N      -0.278906000000000      0.974586000000000     -0.833991000000000
C      -1.487171000000000      0.317219000000000     -0.385614000000000
C      -1.696504000000000     -1.015024000000000     -0.691351000000000
C      -2.872428000000000     -1.623629000000000     -0.270419000000000
C      -3.808590000000000     -0.898683000000000      0.448569000000000
C      -3.576006000000000      0.439001000000000      0.749556000000000
C      -2.411436000000000      1.060335000000000      0.333318000000000
H      -0.435319000000000      1.969184000000000     -1.367939000000000
H       2.118766000000000      1.552426000000000     -0.886864000000000
H       2.128522000000000      2.771754000000000      0.414134000000000
H       2.260028000000000     -0.940982000000000      1.879285000000000
H       0.699624000000000     -0.389294000000000      1.164323000000000
H       0.386391000000000      0.310650000000000     -1.241226000000000
H      -0.950204000000000     -1.575252000000000     -1.241737000000000
H      -3.048226000000000     -2.665643000000000     -0.501530000000000
H      -4.722232000000000     -1.375125000000000      0.778546000000000
H      -4.308231000000000      1.002114000000000      1.312671000000000
H      -2.197604000000000      2.099473000000000      0.548632000000000
