23
ORCA opt transition state final energy: -86570.51751659624 eV
C       2.275331000000000     -1.180739000000000      1.512826000000000
N       1.784294000000000     -1.595217000000000      0.215337000000000
C       2.116129000000000     -2.936814000000000     -0.219870000000000
C       0.909355000000000     -0.854608000000000     -0.523074000000000
O       0.483044000000000     -1.202130000000000     -1.605832000000000
C       0.547343000000000      0.495158000000000      0.075674000000000
N       1.480996000000000      2.596689000000000      0.512585000000000
O       0.791715000000000      3.269733000000000     -0.044967000000000
O      -0.460060000000000      1.119377000000000     -0.668822000000000
C      -1.688017000000000      1.214542000000000     -0.056802000000000
Br     -2.577262000000000     -0.524344000000000      0.184604000000000
O       2.755861000000000      1.721584000000000     -0.652806000000000
H       1.581262000000000     -1.430999000000000      2.322559000000000
H       2.480570000000000     -0.111755000000000      1.534691000000000
H       3.217966000000000     -1.691788000000000      1.705372000000000
H       3.200090000000000     -3.060573000000000     -0.266320000000000
H       1.692026000000000     -3.095385000000000     -1.206168000000000
H       1.708404000000000     -3.682018000000000      0.469139000000000
H       0.283291000000000      0.413532000000000      1.130870000000000
H      -1.626806000000000      1.626325000000000      0.951778000000000
H      -2.340612000000000      1.800605000000000     -0.693307000000000
H       1.760772000000000      1.053865000000000     -0.304999000000000
H       2.573559000000000      2.005929000000000     -1.559627000000000
