23
ORCA opt transition state final energy: -14059.614921501588 eV
O       0.914647000000000     -1.489942000000000      0.107326000000000
C       1.528742000000000     -0.420123000000000      0.715253000000000
C       2.928721000000000     -0.190180000000000      0.172509000000000
O       3.423955000000000      0.875639000000000     -0.087009000000000
C       0.489900000000000      0.530400000000000      0.296414000000000
C       0.546821000000000      1.165336000000000     -1.035242000000000
N      -1.438463000000000     -0.560233000000000      0.094326000000000
C      -1.723596000000000     -1.059303000000000     -1.245258000000000
O      -2.627653000000000     -0.192327000000000      0.773856000000000
C      -3.001556000000000      1.127490000000000      0.422587000000000
H      -1.019535000000000     -1.310339000000000      0.637873000000000
H       1.622184000000000     -0.491928000000000      1.816532000000000
H       3.464249000000000     -1.147458000000000      0.003969000000000
H      -0.099949000000000      1.026831000000000      1.054786000000000
H       0.903182000000000      0.464357000000000     -1.787303000000000
H       1.292016000000000      1.965962000000000     -0.960626000000000
H      -0.407585000000000      1.590312000000000     -1.337938000000000
H      -2.051054000000000     -0.246851000000000     -1.893781000000000
H      -0.791345000000000     -1.474276000000000     -1.620914000000000
H      -2.493001000000000     -1.833437000000000     -1.219600000000000
H      -2.219135000000000      1.847826000000000      0.673340000000000
H      -3.244891000000000      1.212788000000000     -0.639977000000000
H      -3.892865000000000      1.347476000000000      1.005338000000000
