16
ORCA opt transition state final energy: -12927.713412364934 eV
N      -2.984143000000000     -0.499083000000000     -0.656332000000000
C      -1.838138000000000     -0.416536000000000     -0.300905000000000
O      -1.991217000000000      0.040073000000000      1.325893000000000
C      -0.412362000000000     -0.573879000000000     -0.663465000000000
C       0.421696000000000      0.663020000000000     -0.403471000000000
O      -0.023651000000000      1.672228000000000      0.081486000000000
C       1.898760000000000      0.534844000000000     -0.742660000000000
C       2.580340000000000     -0.149647000000000      0.431526000000000
O       2.610115000000000     -1.342101000000000      0.558026000000000
H      -3.031036000000000     -0.094977000000000      0.659981000000000
H      -1.724338000000000      0.971128000000000      1.388360000000000
H      -0.357393000000000     -0.825515000000000     -1.724866000000000
H       0.037417000000000     -1.408141000000000     -0.116711000000000
H       2.303505000000000      1.533150000000000     -0.894570000000000
H       2.037732000000000     -0.089296000000000     -1.624992000000000
H       3.023214000000000      0.519091000000000      1.190828000000000
