18
ORCA opt transition state final energy: -13071.98481781071 eV
O      -0.932355000000000     -1.513425000000000     -0.160247000000000
C      -1.593702000000000     -0.353607000000000     -0.484084000000000
C      -3.097118000000000     -0.390166000000000     -0.267156000000000
C      -0.840998000000000      0.399463000000000      0.533530000000000
C      -0.256950000000000      1.683327000000000      0.266081000000000
N       0.158509000000000      2.724715000000000      0.009203000000000
N       1.160894000000000     -0.400086000000000      0.771328000000000
C       1.958342000000000     -0.184348000000000     -0.396421000000000
F       3.133766000000000     -0.919264000000000     -0.334270000000000
H       0.699826000000000     -1.308650000000000      0.760515000000000
H      -1.373684000000000      0.024486000000000     -1.496969000000000
H      -3.317002000000000     -0.694145000000000      0.756994000000000
H      -3.510047000000000     -1.143356000000000     -0.939710000000000
H      -3.571218000000000      0.570904000000000     -0.477323000000000
H      -1.105610000000000      0.196563000000000      1.561009000000000
H       1.651571000000000     -0.177874000000000      1.631150000000000
H       2.233256000000000      0.867150000000000     -0.477676000000000
H       1.392129000000000     -0.519537000000000     -1.264285000000000
