23
ORCA opt transition state final energy: -16670.950797475158 eV
O       0.594997000000000     -1.566211000000000     -1.587071000000000
C       0.456516000000000     -0.757636000000000     -0.619374000000000
C       1.804535000000000     -0.401922000000000     -0.171678000000000
C       2.535785000000000      0.558726000000000     -0.995045000000000
O       2.185476000000000      1.032544000000000     -2.055717000000000
O       2.164799000000000     -0.513618000000000      1.164648000000000
C       2.050872000000000      0.655231000000000      1.965258000000000
C      -0.862032000000000     -0.351961000000000     -0.156482000000000
C      -1.039963000000000      0.895126000000000      0.439997000000000
C      -2.305378000000000      1.295614000000000      0.833203000000000
C      -3.387420000000000      0.446955000000000      0.642699000000000
C      -3.214700000000000     -0.796598000000000      0.046524000000000
C      -1.954880000000000     -1.195396000000000     -0.360565000000000
H       1.785217000000000     -1.471215000000000     -1.236784000000000
H       3.525744000000000      0.800058000000000     -0.553976000000000
H       2.710317000000000      0.520532000000000      2.820573000000000
H       1.028147000000000      0.787686000000000      2.328047000000000
H       2.357271000000000      1.551098000000000      1.417626000000000
H      -0.192746000000000      1.557339000000000      0.554739000000000
H      -2.450158000000000      2.268692000000000      1.282633000000000
H      -4.375157000000000      0.758392000000000      0.957232000000000
H      -4.063784000000000     -1.450342000000000     -0.100390000000000
H      -1.797946000000000     -2.157495000000000     -0.829437000000000
