34
ORCA opt transition state final energy: -44257.36153902185 eV
C      -2.337604000000000      2.765176000000000      1.185493000000000
C      -1.860876000000000      1.356796000000000      0.959348000000000
C      -2.774715000000000      0.384039000000000      0.580183000000000
C      -2.361866000000000     -0.917761000000000      0.363246000000000
Cl     -3.520974000000000     -2.120882000000000     -0.108105000000000
C      -1.038883000000000     -1.273943000000000      0.515076000000000
C      -0.137873000000000     -0.289609000000000      0.893973000000000
S       1.571760000000000     -0.863066000000000      1.109625000000000
O       1.938177000000000     -0.275472000000000      2.362238000000000
O       1.534623000000000     -2.269761000000000      0.832374000000000
C       1.726115000000000      0.101459000000000     -1.124966000000000
C       1.784660000000000      1.476543000000000     -1.342091000000000
C       1.072352000000000      2.053792000000000     -2.384482000000000
C       0.296490000000000      1.255562000000000     -3.214275000000000
C       0.249523000000000     -0.120552000000000     -3.019795000000000
C       0.957627000000000     -0.691535000000000     -1.975178000000000
C      -0.504189000000000      1.033130000000000      1.124758000000000
C       0.446015000000000      2.124395000000000      1.534599000000000
O       3.484107000000000     -0.722778000000000      0.455697000000000
H      -2.060860000000000      3.125450000000000      2.177611000000000
H      -1.896744000000000      3.451515000000000      0.459246000000000
H      -3.420228000000000      2.825028000000000      1.091309000000000
H      -3.818370000000000      0.640188000000000      0.453756000000000
H      -0.713607000000000     -2.288634000000000      0.348983000000000
H       2.404180000000000      2.099266000000000     -0.707438000000000
H       1.125748000000000      3.122078000000000     -2.554505000000000
H      -0.267869000000000      1.705127000000000     -4.021534000000000
H      -0.345124000000000     -0.741239000000000     -3.678160000000000
H       0.902966000000000     -1.761937000000000     -1.807566000000000
H       1.487151000000000      1.833056000000000      1.478057000000000
H       0.296639000000000      3.004825000000000      0.908323000000000
H       0.252148000000000      2.418165000000000      2.568962000000000
H       3.847935000000000     -1.618847000000000      0.474628000000000
H       2.783665000000000     -0.400614000000000     -0.502537000000000
