18
ORCA opt transition state final energy: -10371.829693855432 eV
N       0.471323000000000      1.458074000000000      0.942712000000000
C       0.097381000000000      1.234453000000000     -0.417551000000000
C      -1.200321000000000      0.854817000000000     -0.760074000000000
C      -1.930768000000000     -0.075239000000000     -0.047828000000000
C      -1.250014000000000     -0.864748000000000      0.893118000000000
O       0.115631000000000     -1.546402000000000     -0.083792000000000
C       0.945656000000000     -0.733621000000000     -0.627193000000000
N       2.189173000000000     -0.563835000000000     -0.004104000000000
H       1.195965000000000      2.155044000000000      1.019483000000000
H      -0.321583000000000      1.750639000000000      1.499875000000000
H       0.650828000000000      1.827397000000000     -1.139682000000000
H      -1.550682000000000      1.135961000000000     -1.747683000000000
H      -2.842565000000000     -0.460425000000000     -0.485040000000000
H      -1.712131000000000     -1.793214000000000      1.200888000000000
H      -0.606109000000000     -0.427654000000000      1.639750000000000
H       0.992500000000000     -0.705785000000000     -1.715876000000000
H       2.079029000000000     -0.433263000000000      0.994798000000000
H       2.733037000000000      0.189821000000000     -0.401681000000000
