28
ORCA opt transition state final energy: -29947.655382801953 eV
N      -2.331093000000000      2.637001000000000     -0.161688000000000
N      -2.156066000000000      1.809798000000000     -1.308443000000000
C      -1.033292000000000      0.900613000000000     -1.222617000000000
C      -1.180340000000000     -0.229983000000000     -0.185396000000000
N      -1.448480000000000     -1.452491000000000     -0.773682000000000
O      -1.130109000000000     -2.463405000000000      0.030915000000000
S      -0.113945000000000     -0.177915000000000      1.309222000000000
O      -0.312770000000000      1.208127000000000      1.807953000000000
C       1.476137000000000     -0.177760000000000      0.470072000000000
C       2.022657000000000     -1.368612000000000      0.009364000000000
C       3.261280000000000     -1.346341000000000     -0.611231000000000
C       3.948756000000000     -0.146748000000000     -0.750391000000000
C       3.402973000000000      1.031334000000000     -0.262850000000000
C       2.160307000000000      1.020239000000000      0.356223000000000
O      -3.349947000000000     -1.012908000000000     -0.223418000000000
H      -1.954497000000000      2.192890000000000      0.675903000000000
H      -1.789910000000000      3.479140000000000     -0.312500000000000
H      -3.008933000000000      1.275337000000000     -1.423750000000000
H      -0.137074000000000      1.480932000000000     -0.998343000000000
H      -0.888796000000000      0.431896000000000     -2.197904000000000
H      -1.404994000000000     -3.253827000000000     -0.456076000000000
H       1.489602000000000     -2.301921000000000      0.139071000000000
H       3.696586000000000     -2.266766000000000     -0.977750000000000
H       4.918382000000000     -0.134481000000000     -1.230699000000000
H       3.946186000000000      1.962157000000000     -0.359953000000000
H       1.714128000000000      1.919440000000000      0.762003000000000
H      -2.316597000000000     -0.151842000000000      0.272142000000000
H      -4.265382000000000     -1.336273000000000     -0.220837000000000
