13
ORCA opt transition state final energy: -99783.33010566943 eV
Cl      2.600227000000000      0.467480000000000      0.302527000000000
C       1.478968000000000      1.997987000000000      0.195585000000000
C       0.278538000000000      1.553614000000000     -0.490713000000000
Cl      3.596966000000000     -1.837397000000000      0.358298000000000
N      -0.150064000000000      0.343018000000000     -0.355529000000000
C      -1.327627000000000     -0.198377000000000     -0.982323000000000
Br     -2.801220000000000     -0.284375000000000      0.269047000000000
H       1.923708000000000      2.865588000000000     -0.282177000000000
H       1.261997000000000      2.213294000000000      1.242196000000000
H      -0.275436000000000      2.191566000000000     -1.175076000000000
H       0.455971000000000     -0.283170000000000      0.186861000000000
H      -1.631095000000000      0.433244000000000     -1.810196000000000
H      -1.122892000000000     -1.208791000000000     -1.317519000000000
