13
ORCA opt transition state final energy: -23795.17007010214 eV
O       2.502758000000000      1.296223000000000     -0.268581000000000
N       1.787770000000000      0.114948000000000     -0.582828000000000
O       2.633534000000000     -0.936707000000000     -0.386015000000000
N       0.995114000000000     -0.147632000000000      0.703679000000000
C      -0.279714000000000     -0.772422000000000      0.391895000000000
C      -1.329263000000000      0.266962000000000      0.079786000000000
O      -1.221336000000000      1.427562000000000      0.273838000000000
Cl     -2.804177000000000     -0.451976000000000     -0.568038000000000
H       3.358949000000000      0.927263000000000      0.014808000000000
H       1.912022000000000     -0.897299000000000      0.802596000000000
H       0.905246000000000      0.713680000000000      1.242623000000000
H      -0.135273000000000     -1.437694000000000     -0.457925000000000
H      -0.631448000000000     -1.368148000000000      1.236193000000000
