21
ORCA opt transition state final energy: -12668.702381825595 eV
C      -3.774247000000000     -0.259760000000000     -0.014285000000000
C      -2.416814000000000      0.403269000000000     -0.175593000000000
N      -1.337673000000000     -0.563690000000000     -0.101838000000000
C      -0.170326000000000     -0.340994000000000      0.511327000000000
O       0.665847000000000     -1.333583000000000      0.617353000000000
C       2.013870000000000     -0.211415000000000      0.174124000000000
F       2.679209000000000     -1.109786000000000     -0.564812000000000
C       1.334693000000000      0.839431000000000     -0.444954000000000
C       1.342112000000000      2.217049000000000      0.161053000000000
H      -4.570392000000000      0.481318000000000     -0.083851000000000
H      -3.941001000000000     -1.001619000000000     -0.797167000000000
H      -3.846713000000000     -0.761340000000000      0.950357000000000
H      -2.251897000000000      1.133563000000000      0.617820000000000
H      -2.369373000000000      0.945997000000000     -1.124573000000000
H      -1.337945000000000     -1.336367000000000     -0.751096000000000
H      -0.221099000000000      0.463412000000000      1.248632000000000
H       2.452218000000000     -0.092956000000000      1.159983000000000
H       1.187850000000000      0.737099000000000     -1.514464000000000
H       1.658009000000000      2.179164000000000      1.207338000000000
H       2.015008000000000      2.912468000000000     -0.347664000000000
H       0.345897000000000      2.674721000000000      0.151171000000000
