21
ORCA opt transition state final energy: -36012.318388382744 eV
C       1.898604000000000      0.799638000000000     -1.434669000000000
C       0.676858000000000      0.837838000000000     -0.829820000000000
C       0.234309000000000      1.992234000000000     -0.107049000000000
C      -1.017178000000000      2.043469000000000      0.407188000000000
C      -1.930684000000000      0.967708000000000      0.217552000000000
C      -3.317776000000000      1.078867000000000      0.759985000000000
C      -1.507558000000000     -0.176032000000000     -0.431951000000000
C      -2.408121000000000     -1.279009000000000     -0.614605000000000
N      -3.145153000000000     -2.145899000000000     -0.773938000000000
C      -0.171257000000000     -0.308905000000000     -0.854432000000000
Cl      0.773729000000000     -1.517562000000000      1.107281000000000
Cl      3.536412000000000     -0.150491000000000      0.425710000000000
H       2.343639000000000     -0.799599000000000      0.802166000000000
H       2.208577000000000     -0.056764000000000     -2.015578000000000
H       2.535186000000000      1.672033000000000     -1.461482000000000
H       0.916030000000000      2.825884000000000      0.004617000000000
H      -1.355771000000000      2.917834000000000      0.946501000000000
H      -3.620514000000000      2.119662000000000      0.855865000000000
H      -4.037001000000000      0.543185000000000      0.142943000000000
H      -3.344443000000000      0.625710000000000      1.755099000000000
H       0.119561000000000     -1.168960000000000     -1.437424000000000
