39
ORCA opt transition state final energy: -23519.167679245245 eV
C      -0.152739000000000     -1.948480000000000      0.914845000000000
C       0.970855000000000     -1.050621000000000      0.473302000000000
C       0.756875000000000      0.305074000000000      0.188950000000000
C       1.850936000000000      1.089031000000000     -0.180335000000000
C      -0.760015000000000      1.317397000000000      1.239294000000000
O      -1.218266000000000      0.727512000000000      2.180149000000000
C       3.145962000000000      0.603403000000000     -0.319414000000000
C       4.258764000000000      1.519354000000000     -0.743829000000000
C       3.336987000000000     -0.757318000000000     -0.037255000000000
C       4.649353000000000     -1.430436000000000     -0.125698000000000
O       5.694117000000000     -0.925866000000000     -0.459133000000000
C       2.260399000000000     -1.550196000000000      0.357060000000000
N      -1.547214000000000      1.404191000000000     -0.126573000000000
C      -1.906336000000000      2.774395000000000     -0.508238000000000
C      -2.613888000000000      0.446801000000000     -0.283848000000000
C      -3.670066000000000      0.391100000000000      0.614257000000000
C      -4.675582000000000     -0.542647000000000      0.417565000000000
C      -4.626731000000000     -1.410477000000000     -0.665112000000000
C      -3.567738000000000     -1.347495000000000     -1.558084000000000
C      -2.556869000000000     -0.417250000000000     -1.366462000000000
H       0.216670000000000     -2.942489000000000      1.167437000000000
H      -0.905731000000000     -2.056868000000000      0.131804000000000
H      -0.660895000000000     -1.529031000000000      1.784722000000000
H       1.697343000000000      2.150825000000000     -0.377258000000000
H      -0.128401000000000      2.213359000000000      1.286209000000000
H       5.054533000000000      1.550444000000000     -0.000106000000000
H       3.873063000000000      2.528134000000000     -0.892752000000000
H       4.723967000000000      1.178544000000000     -1.668536000000000
H       4.615317000000000     -2.504896000000000      0.150697000000000
H       2.448406000000000     -2.596775000000000      0.581328000000000
H      -0.503994000000000      0.891239000000000     -0.417630000000000
H      -2.696887000000000      3.158188000000000      0.139463000000000
H      -1.028325000000000      3.413124000000000     -0.428938000000000
H      -2.254782000000000      2.781920000000000     -1.539024000000000
H      -3.691383000000000      1.053404000000000      1.467975000000000
H      -5.497808000000000     -0.597051000000000      1.118695000000000
H      -5.414506000000000     -2.137890000000000     -0.810309000000000
H      -3.524126000000000     -2.023083000000000     -2.402008000000000
H      -1.717325000000000     -0.361769000000000     -2.049463000000000
