27
ORCA opt transition state final energy: -12673.704172638154 eV
C       1.620300000000000     -1.723878000000000      1.116819000000000
C       1.848787000000000     -1.223446000000000     -0.294815000000000
C       2.899285000000000     -0.346517000000000     -0.536014000000000
C       3.030271000000000      0.871137000000000      0.119724000000000
C       1.928053000000000      1.659144000000000      0.453030000000000
C       0.628331000000000      1.388329000000000      0.024332000000000
C       0.058832000000000      0.146702000000000     -0.237852000000000
C      -1.057535000000000      0.039393000000000     -1.246918000000000
O      -2.248168000000000     -0.500320000000000     -0.706227000000000
C      -2.899232000000000      0.389409000000000      0.182231000000000
C      -4.157196000000000     -0.278321000000000      0.686323000000000
H       0.658193000000000     -2.227845000000000      1.225392000000000
H       2.397501000000000     -2.452491000000000      1.360577000000000
H       1.682566000000000     -0.914433000000000      1.843253000000000
H       1.677705000000000     -1.985793000000000     -1.052534000000000
H       3.581090000000000     -0.548834000000000     -1.358017000000000
H       3.991392000000000      1.373693000000000      0.106842000000000
H       2.143562000000000      2.681363000000000      0.744317000000000
H       0.071755000000000      2.261390000000000     -0.316019000000000
H      -0.045711000000000     -0.569772000000000      0.555277000000000
H      -1.250091000000000      1.023426000000000     -1.699623000000000
H      -0.767576000000000     -0.637686000000000     -2.052043000000000
H      -3.138428000000000      1.323155000000000     -0.346163000000000
H      -2.237031000000000      0.648323000000000      1.017556000000000
H      -3.912340000000000     -1.197820000000000      1.218025000000000
H      -4.692068000000000      0.384137000000000      1.367725000000000
H      -4.815619000000000     -0.527974000000000     -0.145487000000000
