13
/mnt/e/work/rmlp/database/CAMD/log/success_log/ts_143_1_NO2-A-9-a_opt.log
N          3.61371       -0.93522        0.22005
C          2.83367       -0.15983       -0.09906
O          2.00402        0.75064       -0.40327
N          0.61378        0.29826       -0.68176
C         -0.14123       -0.01213        0.42926
F         -0.66698        1.06395        1.14910
N         -1.98496       -0.07105       -0.74164
O         -2.68308        0.71725       -0.28195
O         -2.15368       -1.64486        0.07059
H          0.24446        1.05371       -1.25154
H          0.43709       -0.60642        1.15214
H         -1.08289       -1.04893        0.32141
H         -2.78625       -1.57030        0.79536
