26
/mnt/e/work/rmlp/database/CAMD/log/success_log/ts_191_1_R-B-14_opt.log
C         -4.29829        0.39313        1.22909
C         -3.56974        0.92660        0.05417
C         -3.42868        0.25495       -1.12753
O         -1.91350       -0.35868       -0.30141
O          0.46480        0.57754       -0.41544
C          0.51331       -0.61778       -0.15446
O         -0.52848       -1.35540       -0.02569
C          1.81413       -1.38153        0.03898
C          2.91625       -0.50651        0.63272
N          3.40725        0.42823       -0.36007
C          4.40579        1.33174        0.16826
H         -3.66648        0.42505        2.11479
H         -4.61993       -0.62960        1.05781
H         -5.17120        1.01666        1.42879
H         -3.12015        1.90391        0.17109
H         -3.02923        0.73332       -2.00715
H         -3.95006       -0.67478       -1.28834
H         -1.28293        0.39196       -0.44419
H          1.61280       -2.24812        0.66845
H          2.13047       -1.73037       -0.94672
H          3.75476       -1.14377        0.93620
H          2.53421       -0.00027        1.53915
H          2.61465        0.96032       -0.71187
H          4.05773        1.91449        1.03577
H          4.70855        2.02141       -0.61721
H          5.27689        0.75094        0.47700
