25
/mnt/e/work/rmlp/database/CAMD/log/success_log/ts_184_1_NO2-A-8-d_opt.log
C         -0.51579        2.37635        1.13908
C          0.33502        1.81144        0.04190
O          0.97417        2.47125       -0.72584
C          0.36036        0.27753       -0.00009
N          0.77868       -0.22287        1.22435
O          0.72387       -1.55132        1.34940
C          0.86840       -0.24224       -1.37129
C          1.84401       -1.36633       -1.33303
O          0.43530        0.27159       -2.36008
S         -1.41324       -0.45988       -0.16513
C         -2.04189       -0.84785        1.49370
O         -2.21151        0.60133       -0.69090
O         -1.29872       -1.67223       -0.90466
O          2.59615       -0.33925        1.43460
H         -0.30486        3.43622        1.25594
H         -0.33441        1.84523        2.07002
H         -1.55671        2.25104        0.84391
H          2.71171       -1.08418       -0.73991
H          2.14075       -1.61575       -2.34764
H          1.36549       -2.22464       -0.86273
H         -1.45925       -1.66532        1.89730
H         -1.98144        0.03793        2.11004
H         -3.07241       -1.14277        1.33608
H          1.95813       -1.38950        1.65173
H          2.83927        0.16565        2.21517
