19
/mnt/e/work/rmlp/database/CAMD/log/success_log/ts_166_2_S-D-2_opt.log
C          2.12935        2.09405       -0.40291
N          1.22333        1.42283        0.50866
C          0.65361        0.20411        0.01509
O         -0.45079       -0.14183        0.75921
N         -2.12015        0.45677       -0.09371
O         -2.82619        0.73675        0.77926
O         -1.78021        0.85226       -1.12493
C          1.63256       -0.99179       -0.00291
O          2.79832       -0.91693        0.26753
O          1.01819       -2.12184       -0.34449
O         -2.14772       -1.37743       -0.25678
H          2.44152        3.02720        0.06065
H          3.01985        1.50490       -0.65032
H          1.58972        2.32436       -1.32180
H          1.66737        1.26268        1.40652
H          0.34794        0.37512       -1.04081
H          1.63624       -2.87096       -0.34311
H         -2.74428       -1.76234        0.39161
H         -1.06640       -1.10413        0.29860
