16
/mnt/e/work/rmlp/database/CAMD/log/success_log/ts_179_1_A-E-17_opt.log
C          2.20777        0.47432        0.86435
C          1.70605       -0.15321       -0.40019
O          2.41907       -0.79191       -1.14465
C          0.31032        0.06332       -0.81694
Cl        -0.66820       -1.36405        0.87072
C         -0.60367        1.13314       -0.48999
N         -0.28497        2.03225        0.53972
N         -1.76962        0.14957       -0.02699
O         -2.53087       -0.27071       -0.83828
H          3.25786        0.22432        0.99135
H          1.64199        0.09897        1.71342
H          2.08807        1.55380        0.80930
H          0.05416       -0.49320       -1.71247
H         -1.02203        1.64633       -1.35914
H         -1.00331        2.73098        0.67553
H         -0.10354        1.55046        1.41067
