24
/mnt/e/work/rmlp/database/CAMD/log/success_log/ts_172_1_S-G-4_opt.log
C          2.71267       -1.45987        0.02456
C          2.50954       -0.01659        0.38461
O          2.67419        0.42810        1.49096
C          2.12643        0.88184       -0.78349
C          0.90617        1.74633       -0.44136
O         -0.28182        1.15259       -0.91180
S         -0.86107       -0.51338       -0.17824
O         -0.28795       -1.22819       -1.28075
O         -0.24360       -0.30897        1.08688
O         -2.03510       -1.60155        0.22662
O         -2.35051        0.66936       -0.31243
C         -2.93608        0.90431        0.95756
H          1.78501       -1.83611       -0.40222
H          2.98300       -2.03740        0.90388
H          3.49403       -1.54179       -0.72894
H          1.89829        0.29373       -1.67060
H          2.97967        1.53381       -0.98403
H          0.86015        1.88836        0.64549
H          0.97085        2.72258       -0.93576
H         -2.12669       -2.26664       -0.45644
H         -1.51567        1.35975       -0.58630
H         -2.17687        0.84264        1.73946
H         -3.68909        0.13648        1.13173
H         -3.39957        1.89180        0.94852
