23
/mnt/e/work/rmlp/database/CAMD/log/success_log/ts_141_1_NO2-B-8-e_opt.log
C          3.27992       -0.00239        0.49528
C          2.02819        0.83597        0.35715
S          0.67142       -0.31770       -0.10421
O          0.90365       -0.75919       -1.45780
O          0.60816       -1.33525        0.91353
C         -0.89865        0.68056       -0.12367
C         -0.68645        2.04614       -0.73143
N         -2.04327        0.06390       -0.41987
C         -2.11626       -1.34046       -0.59274
O         -2.50386        0.35041        1.44212
H          3.49888       -0.48546       -0.45405
H          4.13172        0.60749        0.78982
H          3.11738       -0.77508        1.24283
H          2.11562        1.57228       -0.43502
H          1.73664        1.29878        1.29586
H         -1.65465        2.50945       -0.90305
H         -0.09237        2.69158       -0.09034
H         -0.18210        1.93162       -1.69017
H         -1.67321       -1.55516       -1.57106
H         -3.16444       -1.63516       -0.59909
H         -1.55542       -1.90916        0.15216
H         -1.25500        0.80283        1.11812
H         -3.16700        0.21535        2.14006
