25
/mnt/e/work/rmlp/database/CAMD/log/success_log/ts_180_1_S-C-15_opt.log
O         -0.90667       -2.78411       -0.77264
C         -0.76358       -1.59051       -0.67352
N          1.16990       -1.20976       -0.25911
F          2.18200       -1.36348       -1.22273
C          1.14346        0.06277        0.31138
C          2.01909        1.13324       -0.07215
C          1.51300        2.36759       -0.37196
C          0.13470        2.60738       -0.47997
C         -0.78548        1.62672       -0.16095
C         -0.25386        0.43785        0.68905
C         -1.12648       -0.80380        0.63000
C         -2.57326       -0.50160        0.61065
C         -3.02872        0.66369        0.07324
C         -2.09364        1.51863       -0.49193
O          1.77777       -0.70424        1.87612
H         -0.76790       -0.91780       -1.55177
H          3.06713        0.91585       -0.20951
H          2.19517        3.15269       -0.66257
H         -0.21273        3.55969       -0.84887
H         -0.26555        0.87181        1.69617
H         -0.88536       -1.47313        1.45921
H         -3.25276       -1.31802        0.80594
H         -4.08303        0.82152       -0.09459
H          1.59262       -1.56777        0.94925
H          2.70486       -0.53016        2.06418
