17
/mnt/e/work/rmlp/database/CAMD/log/success_log/ts_13_1_R-B-15-a_opt.log
O         -0.39946       -1.64874       -0.96975
C         -0.59135       -0.76432       -0.04088
O          0.25747       -0.50479        0.90726
C          1.54983       -1.10865        0.85812
C          2.60868       -0.01997        0.78745
Cl         2.55452        0.79106       -0.80358
C         -1.79024       -0.06566       -0.35616
C         -3.10838       -0.78594       -0.08906
Cl        -1.87633        1.60539        0.26736
H         -1.39500       -1.00084       -1.49061
H          1.67209       -1.68511        1.78033
H          1.60831       -1.77550       -0.00768
H          3.60330       -0.44662        0.90548
H          2.42307        0.74111        1.54449
H         -3.41154       -0.66495        0.95238
H         -3.88566       -0.36311       -0.72079
H         -3.01924       -1.84932       -0.30468
