28
/mnt/e/work/rmlp/database/CAMD/log/success_log/ts_151_1_NO2-A-2-a_opt.log
C         -1.73339       -0.02428        1.76271
C         -1.65533       -0.24245        0.27238
N         -1.27246        1.86485       -0.30841
O         -1.09641        2.42578        0.68786
C         -2.62232       -1.28049       -0.23974
O         -2.35178       -2.21879       -0.92881
O         -3.87448       -1.05164        0.21601
C         -0.28408       -0.41815       -0.31326
O         -0.06109       -0.69259       -1.45826
O          0.66070       -0.17015        0.62043
C          2.00432       -0.13359        0.26711
C          2.45526        0.52014       -0.86946
C          3.81449        0.56051       -1.12826
C          4.71440       -0.03462       -0.26134
C          4.25511       -0.67610        0.87696
C          2.89997       -0.72980        1.14456
O         -2.98278        1.79903       -0.69765
H         -1.39047        0.99089        2.01502
H         -2.75172       -0.14877        2.12279
H         -1.07372       -0.70505        2.29735
H         -4.46793       -1.75446       -0.08852
H          1.75270        0.98249       -1.54397
H          4.16917        1.06434       -2.01464
H          5.77279        0.00160       -0.47114
H          4.95262       -1.14035        1.55792
H          2.52351       -1.22707        2.02507
H         -2.52177        0.69631       -0.33473
H         -3.50179        2.20602        0.00708
