26
/mnt/e/work/rmlp/database/CAMD/log/success_log/ts_175_1_A-E-19_opt.log
C          2.07347        0.08039        0.53495
C          3.54126       -0.06855        0.19320
O          4.18216       -1.06670        0.36460
O          4.03170        1.06052       -0.30224
C          1.22603        0.70475       -0.46452
C          0.55594       -1.46991       -0.09510
O          0.87190       -1.98562       -1.10473
O         -0.38355       -1.26145        0.71926
C         -1.66627       -0.76175        0.31329
C         -2.52612       -0.43657        1.34590
C         -3.77470        0.06626        1.02821
C         -4.14117        0.23693       -0.29709
C         -3.26346       -0.09926       -1.31268
C         -2.00904       -0.60665       -1.01540
N          0.18563        1.49269       -0.05905
O         -0.09497        1.51397        1.14832
O         -0.46294        2.09740       -0.91198
H          1.71878       -1.06696        0.73046
H          1.90554        0.54689        1.51402
H          4.97643        0.97271       -0.50856
H          1.47405        0.73769       -1.51042
H         -2.20143       -0.55340        2.36599
H         -4.45367        0.33930        1.82067
H         -5.11042        0.64471       -0.53895
H         -3.54133        0.04440       -2.34461
H         -1.31727       -0.85298       -1.80573
