19
/mnt/e/work/rmlp/database/CAMD/log/success_log/ts_157_1_NO2-B-12-d_opt.log
C         -2.53025       -0.25630        1.43541
C         -2.60389        0.09826       -0.01494
O         -3.59399        0.46737       -0.59218
C         -1.30263       -0.01883       -0.76247
N         -0.18161       -0.17043       -0.03521
C          1.05083        0.34298       -0.51221
C          1.18085        1.74261       -0.14686
N          1.27283        2.84660        0.12364
N          2.16227       -0.42068        0.20851
O          3.11913       -0.68737       -0.46377
O          1.98046       -0.67724        1.35891
O         -0.13639       -1.96257       -0.62905
H         -3.52941       -0.35333        1.84990
H         -1.99787        0.53369        1.96181
H         -1.96242       -1.17249        1.56664
H         -1.26938        0.52176       -1.71439
H          1.23798        0.23350       -1.59625
H         -1.25384       -1.29991       -1.07344
H          0.27743       -2.82551       -0.45771
