15
/mnt/e/work/rmlp/database/CAMD/log/success_log/ts_173_1_RR-B-6-a_opt.log
N          2.30599       -0.03605       -1.22507
C          1.69359        0.21007       -0.22859
O          2.04425       -1.20304        0.67267
C          0.82264        1.13800        0.51037
N         -0.48161        0.53085        0.72191
C         -1.24367        0.39080       -0.51020
C         -2.50720       -0.25895       -0.24688
N         -3.51221       -0.75402       -0.02405
H          2.56377       -1.22713       -0.46706
H          1.38209       -1.81809        1.01861
H          0.78064        2.08082       -0.06501
H          1.27284        1.33642        1.48606
H         -1.01252        1.06164        1.40533
H         -1.45131        1.35628       -1.01058
H         -0.66691       -0.23058       -1.20637
