20
/mnt/e/work/rmlp/database/CAMD/log/success_log/ts_162_1_NO2-A-1-e_opt.log
O          0.41143       -0.12197       -1.38390
C          0.48005        0.34035       -0.27961
C          1.57154        0.16498        0.71561
N          2.54728       -0.78171        0.60375
O          2.61086       -1.43739       -0.56116
O         -0.45872        1.15370        0.26275
C         -1.63651        1.38661       -0.49375
C         -2.83694        0.71857        0.17020
O         -2.69439       -0.66543       -0.03182
O         -3.81348       -1.33119        0.55221
O          3.75733        0.69078        0.38912
H          1.27741        0.32232        1.74815
H          3.33140       -2.08500       -0.47808
H         -1.79368        2.46697       -0.53123
H         -1.49757        0.98158       -1.50197
H         -3.76573        1.07529       -0.29259
H         -2.85575        0.94424        1.24374
H         -3.66645       -2.24485        0.27485
H          2.47694        1.10086        0.53214
H          4.68942        0.93943        0.28639
