17
/mnt/e/work/rmlp/database/CAMD/log/success_log/ts_131_1_RR-B-1-b_opt.log
C          1.00523       -0.72648       -0.18598
C         -0.44194       -0.49392       -0.57041
C         -1.36883       -0.44434        0.64922
N         -2.76090       -0.43880        0.22011
O         -3.10878        0.83101       -0.34419
C          1.76460        0.36768        0.16404
O          1.86410        1.53208        0.25700
O          3.28674       -0.48294       -0.03055
H          2.35505       -0.99944       -0.70211
H          1.15485       -1.63423        0.38788
H         -0.77047       -1.30768       -1.22069
H         -0.52482        0.44545       -1.11941
H         -1.11655        0.43058        1.26356
H         -1.23959       -1.34787        1.25063
H         -3.36623       -0.52044        1.03563
H         -3.15152        0.68322       -1.29764
H          3.89479        0.06321       -0.53807
