14
/mnt/e/work/rmlp/database/CAMD/log/success_log/ts_195_2_S-B-5-a_opt.log
O         -1.32587        1.60929        0.87713
C         -0.71343        0.87328        0.18889
O         -1.47166       -0.13455       -0.70621
C         -2.43973       -1.04449       -0.16863
C          0.60281        0.59107       -0.28533
F          1.43092        1.68551       -0.39365
C          1.33370       -0.62020        0.08321
O          2.52514       -0.75958        0.05651
O          0.49848       -1.65338        0.42788
H         -0.38865       -0.29248       -1.17334
H         -1.94345       -1.86186        0.35389
H         -3.03746       -1.41972       -0.99730
H         -3.06539       -0.47938        0.52181
H          1.04775       -2.40840        0.68637
