25
/mnt/e/work/rmlp/database/CAMD/log/success_log/ts_196_1_R-B-11_opt.log
C          3.01465       -0.15109        0.24183
C          1.61581        0.03197       -0.26386
C          1.52020        0.92172       -1.47041
C          0.67728       -0.97154        0.07901
O          0.85841       -2.09571        0.52095
N         -0.62828       -0.39571       -0.06152
C         -1.72554       -1.09543       -0.64128
F         -2.87978       -0.86993        0.06104
C         -0.61023        0.89231        0.32863
C         -1.53786        1.86703       -0.31950
C         -0.06111        1.30644        1.65527
H          3.69512       -0.45591       -0.55598
H          3.03268       -0.90763        1.02137
H          3.38933        0.79057        0.64673
H          2.26522        0.60896       -2.20845
H          0.54453        0.89193       -1.94616
H          1.74886        1.95650       -1.20983
H         -1.93125       -0.79051       -1.67928
H         -1.49564       -2.16599       -0.58189
H         -2.51046        1.84621        0.17802
H         -1.14115        2.87587       -0.23024
H         -1.69942        1.63918       -1.37075
H         -0.88825        1.65036        2.28464
H          0.44320        0.48024        2.14680
H          0.63679        2.13681        1.56060
