41
/mnt/e/work/rmlp/database/CAMD/log/success_log/ts_169_1_RR-A-12_opt.log
C          6.87728        0.05855        0.01017
C          5.43964       -0.34839        0.02996
C          4.47433        0.47129        0.60909
C          3.14175        0.11456        0.60544
C          2.74648       -1.08864        0.01796
N          0.24430       -0.86095        0.17019
C          1.36530       -1.51819        0.01463
O          0.98833       -2.74969       -0.08618
C         -0.57375       -2.31218        0.06339
C         -1.16031       -2.73603        1.28060
C         -2.44126       -3.21829        1.29787
C         -3.20170       -3.31669        0.12529
C         -4.55697       -3.81666        0.14876
O         -5.29445       -3.93126       -0.80721
C         -2.60478       -2.92460       -1.08278
C         -1.32662       -2.44214       -1.12792
C         -0.19380        0.44561        0.12143
C          0.43893        1.40848       -0.66792
C         -0.06453        2.69211       -0.72626
C         -1.20844        3.01011       -0.01056
Br        -1.88912        4.78442       -0.08482
C         -1.86540        2.05696        0.75174
C         -1.35946        0.77457        0.81505
C          3.71122       -1.92731       -0.54547
C          5.03778       -1.55205       -0.54406
H          7.11164        0.53408       -0.94284
H          7.09421        0.76872        0.80386
H          7.52647       -0.80716        0.11790
H          4.77408        1.40005        1.07169
H          2.40910        0.75235        1.07678
H         -0.57361       -2.66768        2.18412
H         -2.87297       -3.52966        2.23848
H         -4.90666       -4.10627        1.16324
H         -3.18278       -3.01519       -1.98979
H         -0.86964       -2.14975       -2.06108
H          1.31763        1.14646       -1.23793
H          0.42350        3.44138       -1.33027
H         -2.76400        2.31605        1.28949
H         -1.85990        0.01438        1.39353
H          3.39913       -2.86325       -0.98306
H          5.77754       -2.20146       -0.98818
