25
/mnt/e/work/rmlp/database/CAMD/log/success_log/ts_164_1_R-A-3_opt.log
C          2.59569        1.07840       -0.76520
C          2.80805       -0.17207        0.02589
O          3.88265       -0.55025        0.41523
C          1.55033       -0.97851        0.35358
N          0.37814       -0.53912       -0.34757
C         -0.73734       -1.35686       -0.37881
C         -1.56314       -1.42240        1.04709
C         -2.16625       -0.18687        1.41343
O         -2.58083        0.14739       -0.94947
C         -1.78109       -0.88268       -1.41325
Cl        -0.83231        2.11803        0.34884
H          2.11868        0.83293       -1.71129
H          3.54578        1.57483       -0.94116
H          1.92575        1.74594       -0.22650
H          1.75239       -2.03012        0.12011
H          1.42759       -0.90961        1.44846
H          0.12988        0.44913       -0.16415
H         -0.43864       -2.39376       -0.57102
H         -2.29470       -2.20881        0.87611
H         -0.78262       -1.72803        1.74517
H         -3.21323       -0.00325        1.25776
H         -1.60582        0.55309        1.95276
H         -1.23461       -0.59233       -2.32018
H         -2.45146       -1.71263       -1.65682
H         -2.02880        0.93882       -0.72883
