17
/mnt/e/work/rmlp/database/CAMD/log/success_log/ts_182_1_NO2-A-12-a_opt.log
C          2.76065        0.84232       -0.34695
C          1.90450       -0.36871       -0.10486
O          2.30133       -1.50870       -0.21272
C          0.49110       -0.08828        0.24911
C          0.13610        1.23238        0.63138
N         -0.12288        2.29241        0.98501
C         -0.21305       -1.18688        0.84540
O         -1.39348       -1.24642        1.18584
N         -2.13633        0.65719       -0.58590
O         -2.62630       -0.17545        0.00317
O         -1.08160       -0.01713       -1.84701
H          3.74779        0.53626       -0.68243
H          2.29811        1.48967       -1.08963
H          2.85044        1.41195        0.57689
H          0.40712       -2.09831        0.92317
H         -0.20222       -0.09331       -1.06555
H         -1.36213       -0.89682       -2.13501
