25
/mnt/e/work/rmlp/database/CAMD/log/success_log/ts_169_2_A-E-9_opt.log
C          1.48826        1.56899       -0.02434
N          1.03029        2.65375       -0.68722
C          1.23622        0.22705       -0.51767
C          2.32368       -0.76305       -0.55561
O          2.32008       -1.75056       -1.24809
O          3.32557       -0.47698        0.29101
C          0.31541        0.04057        0.99015
O          0.82018       -0.66836        1.85321
C         -1.08257       -0.06152        0.46647
C         -1.92739        1.03222        0.33919
C         -3.21696        0.86106       -0.13546
C         -3.67050       -0.40120       -0.47671
C         -2.83238       -1.49622       -0.33868
C         -1.54205       -1.33011        0.12748
H          0.47797        1.26405        1.21905
H          2.36758        1.70878        0.59032
H          1.09663        3.55908       -0.24944
H          0.24541        2.52440       -1.30821
H          0.57582        0.14108       -1.37429
H          3.94425       -1.22197        0.32330
H         -1.58837        2.01852        0.62706
H         -3.87031        1.71616       -0.23119
H         -4.67748       -0.53185       -0.84398
H         -3.18489       -2.48312       -0.59802
H         -0.87560       -2.17114        0.23796
