16
/mnt/e/work/rmlp/database/CAMD/log/success_log/ts_173_2_A-E-1_opt.log
C         -0.61788       -0.42423       -1.10002
C         -1.81846       -0.06737       -0.19770
C         -2.05354       -0.99998        0.94141
O         -2.50746        0.86637       -0.49126
C          0.50020        0.44453       -1.09551
Cl         1.62341       -1.67094        0.09955
C          0.94275        1.21621        0.07351
O          1.91957        1.92393        0.07064
O          0.14185        1.08446        1.13808
H         -0.09567       -1.36386       -0.60492
H         -0.94597       -0.70011       -2.10241
H         -2.29875       -1.98549        0.54825
H         -2.86908       -0.64520        1.56527
H         -1.14230       -1.09222        1.52679
H          1.11787        0.57102       -1.97327
H          0.48588        1.60879        1.87826
