13
/mnt/e/work/rmlp/database/CAMD/log/success_log/ts_17_1_A-A-1_opt.log
O          1.53700        1.30005        0.37445
N          1.28176        0.21557       -0.38112
O          2.17968       -0.69525       -0.22719
O          0.09334       -0.93265        0.48351
C         -1.11749       -1.13097       -0.15760
C         -2.08209       -0.00127        0.20105
F         -1.62084        1.18454       -0.32284
H          0.86447        1.96379        0.14610
H          1.20475       -1.43411        0.12630
H         -1.54978       -2.08171        0.17807
H         -0.97790       -1.16247       -1.24755
H         -2.13386        0.13574        1.28499
H         -3.07507       -0.17486       -0.22144
