41
/mnt/e/work/rmlp/database/CAMD/log/success_log/ts_149_1_A-I-6_opt.log
N          0.09376        0.07412       -0.21380
C          1.06248        0.06062        0.67581
S          1.24380        0.00271        2.29355
N          2.23720        0.05464       -0.28743
C          2.90898       -1.21663       -0.25407
C          2.55733       -2.19398       -1.17229
C          3.15745       -3.43936       -1.10629
C          4.09548       -3.70713       -0.12331
C          4.43471       -2.73003        0.79804
C          3.84399       -1.48098        0.73763
C          3.08525        1.20845       -0.31617
C          2.65302        2.40602        0.23767
C          3.46045        3.52675        0.16661
C          4.69060        3.46461       -0.46505
C          5.11104        2.27421       -1.03370
C          4.31336        1.14689       -0.96417
C         -1.27189        0.06262       -0.04629
C         -1.91071        0.04075        1.19553
C         -3.28842        0.03154        1.25336
C         -4.03008        0.04428        0.08509
Br        -5.93535        0.03067        0.21957
C         -3.42701        0.06712       -1.17078
C         -4.24109        0.08168       -2.42494
C         -2.04454        0.07631       -1.21179
H          1.22494        0.07019       -1.04301
H          1.81789       -1.97990       -1.93096
H          2.88758       -4.20134       -1.82146
H          4.55889       -4.68055       -0.07252
H          5.15808       -2.94071        1.57065
H          4.09238       -0.71545        1.45642
H          1.69539        2.45965        0.73162
H          3.12302        4.45164        0.60856
H          5.31839        4.34079       -0.51666
H          6.06555        2.21885       -1.53482
H          4.64354        0.21993       -1.40929
H         -1.32912        0.03052        2.10230
H         -3.78968        0.01437        2.20923
H         -4.87880       -0.80096       -2.47394
H         -3.59986        0.10065       -3.30215
H         -4.89120        0.95632       -2.44543
H         -1.53985        0.09557       -2.16695
