15
/mnt/e/work/rmlp/database/CAMD/log/success_log/ts_134_1_NO2-A-6-a_opt.log
C          1.27191        1.75158       -0.40739
S          1.57096       -0.07513       -0.43011
O          2.03872       -0.43082        0.90312
C         -0.29847       -0.69047       -0.43870
O         -0.21101       -1.98333        0.00467
N         -2.11320       -0.23171        0.07891
O         -2.67845        0.39516       -0.73062
O         -1.32627        0.87399        1.28675
H          2.20921        2.23555       -0.66280
H          0.97298        2.05332        0.59024
H          0.52059        1.99910       -1.14840
H         -0.51769       -0.69283       -1.50830
H          0.10990       -1.98660        0.91822
H         -0.53083        0.23521        0.48826
H         -1.53155        1.77371        1.01726
