22
/mnt/e/work/rmlp/database/CAMD/log/success_log/ts_296_2_R-A-6_opt.log
N          1.09215       -1.12367       -0.44515
C          2.27046       -0.75245        0.25484
F          3.38699       -0.69334       -0.55746
C          1.75218        0.57180        0.65823
C          1.85287        1.73558       -0.23890
O         -0.48027        0.19435        0.86771
C         -1.45527        0.87234        0.18970
C         -2.69543        0.03895       -0.16084
C         -2.63277       -1.39776        0.25892
O         -3.62672        0.54036       -0.73666
H          0.12630       -0.65462        0.18765
H          1.09932       -0.73917       -1.38401
H          2.49905       -1.44381        1.07209
H          1.45722        0.72162        1.68230
H          2.56280        2.43504        0.21088
H          2.21798        1.46054       -1.22642
H          0.90628        2.27000       -0.32663
H         -1.09241        1.27802       -0.77499
H         -1.80916        1.72529        0.78990
H         -2.33265       -1.45107        1.30316
H         -1.86536       -1.90424       -0.32531
H         -3.59356       -1.88023        0.10448
