26
/mnt/e/work/rmlp/database/CAMD/log/success_log/ts_225_2_S-A-9_opt.log
C         -3.11338        1.04402       -0.72650
O         -2.62541       -0.23612       -0.37926
C         -2.16320       -0.35871        1.00390
O         -1.83381        0.65765        1.59154
C         -2.08531       -1.69474        1.31571
C         -1.02831       -0.61122       -1.48808
Cl        -0.27169       -1.77557       -0.58740
C          0.17808        2.79718        0.20302
O          0.94122        1.85787       -0.52945
C          1.76974        1.08083        0.30788
C          2.68422        0.25410       -0.58315
Cl         3.68260       -0.82642        0.40943
H         -2.54449        1.81710       -0.20418
H         -3.04045        1.16477       -1.80514
H         -4.15962        1.10011       -0.41688
H         -1.77060       -1.98374        2.30127
H         -2.56585       -2.42882        0.69851
H         -0.57299        0.37068       -1.47734
H         -1.57022       -0.94129       -2.35962
H         -0.41585        3.34528       -0.52640
H         -0.47257        2.29336        0.92579
H          0.83028        3.49631        0.73760
H          2.37192        1.73267        0.95729
H          1.15882        0.43133        0.95171
H          2.10536       -0.36730       -1.26548
H          3.35384        0.89943       -1.15099
