22
/mnt/e/work/rmlp/database/CAMD/log/success_log/ts_270_1_RR-B-8-b_opt.log
N          4.22544       -0.49245        0.02587
C          3.39382        0.28432       -0.11821
O          2.50513        1.15979       -0.35215
N          1.18563        0.98582        0.19062
C          0.51189       -0.14615       -0.19806
N          1.01026       -1.00757       -1.10289
C         -0.96888       -0.03777       -0.12717
C         -1.76600       -1.17915       -0.14503
C         -3.14305       -1.06540       -0.09629
C         -3.73636        0.18456       -0.02878
C         -2.94677        1.32213       -0.00060
C         -1.56866        1.21524       -0.04698
O          0.84954       -0.77774        1.59022
H          2.00610       -1.18058       -1.10792
H          0.43993       -1.79684       -1.35822
H         -1.31302       -2.16037       -0.16324
H         -3.75434       -1.95539       -0.10729
H         -4.81200        0.26953        0.00760
H         -3.40623        2.29723        0.05760
H         -0.94134        2.09162       -0.02900
H          1.19358        0.47618        1.35388
H          0.14467       -0.96491        2.21363
