30
/mnt/e/work/rmlp/database/CAMD/log/success_log/ts_235_1_RR-A-9-a_opt.log
C         -0.11630       -0.65514       -0.55169
C          0.31648        0.31720        0.89277
C         -0.10037        1.63331        0.56141
C         -1.46416        1.91408        0.44054
C         -1.90942        3.25024       -0.07125
C          1.80264        0.10083        1.15359
C          2.68639        0.41002       -0.04570
N          3.54308       -0.58628       -0.37921
O          2.65674        1.44913       -0.66321
C          0.30103       -2.02058       -0.34214
C         -0.56507       -2.95799        0.12119
C         -1.93327       -2.65296        0.27559
C         -2.41124       -1.41482       -0.04854
C         -1.55957       -0.41372       -0.57246
O         -1.97886        0.76443       -0.84629
H          0.45008       -0.11528       -1.30480
H         -0.28297       -0.17469        1.65911
H          0.59671        2.24041        0.00135
H         -2.12732        1.48405        1.18783
H         -1.93311        3.96508        0.75042
H         -2.90714        3.17098       -0.49328
H         -1.22931        3.61090       -0.83735
H          1.97193       -0.92056        1.49532
H          2.09859        0.78517        1.95350
H          4.18742       -0.42773       -1.13684
H          3.63755       -1.42829        0.15904
H          1.33199       -2.27768       -0.53890
H         -0.22784       -3.96521        0.32044
H         -2.60712       -3.42219        0.62383
H         -3.46677       -1.19220        0.01095
