14
/mnt/e/work/rmlp/database/CAMD/log/success_log/ts_204_1_A-E-1_opt.log
C          0.60628       -0.88321        0.70790
C          1.79506       -0.77702       -0.07817
N          2.77172       -0.72183       -0.67324
C         -0.00569        0.33961        1.21007
Cl        -2.06411       -0.70517       -0.39914
N         -0.05446        1.47868        0.58754
C          0.23297        1.65254       -0.81195
H         -0.26520       -1.24633        0.02900
H          0.74206       -1.62908        1.49066
H         -0.45428        0.29956        2.19368
H         -0.60107        2.21834        1.01099
H         -0.49287        1.05064       -1.37226
H          0.13401        2.70038       -1.07879
H          1.23473        1.30488       -1.05506
