21
/mnt/e/work/rmlp/database/CAMD/log/success_log/ts_224_1_NO2-A-4-d_opt.log
O         -3.49600       -0.99399       -0.04895
N         -2.08622       -0.25363       -0.66974
C         -1.37139        0.40228        0.36275
F         -1.05392       -0.35902        1.44247
F         -2.14342        1.40188        0.84386
C         -0.08918        1.05299       -0.29302
O         -0.23024        2.11559       -0.83179
C          1.17652        0.33908       -0.13134
C          1.27613       -1.04387        0.02915
C          2.52267       -1.62740        0.15866
C          3.66901       -0.84889        0.14514
C          3.57601        0.52524       -0.02412
C          2.33970        1.11788       -0.17147
O         -1.57865       -1.41182       -1.04347
H          0.39475       -1.66452        0.00424
H          2.59873       -2.69796        0.27273
H          4.63749       -1.31280        0.25962
H          4.46938        1.13091       -0.04417
H          2.24457        2.18462       -0.30660
H         -2.84597       -1.79996       -0.64533
H         -4.27699       -0.63281       -0.49003
