12
/mnt/e/work/rmlp/database/CAMD/log/success_log/ts_262_1_S-B-3-a_opt.log
O          2.28225       -0.93296       -0.94139
C          1.34240       -0.57087       -0.13570
C          1.64307       -0.92815        1.17267
C          0.22183        0.25370       -0.66630
Br        -1.51754       -0.33323        0.04187
C          0.28661        1.71636       -0.26026
O          1.05289        2.17775        0.52667
H          2.81087       -1.18655        0.31344
H          1.79811       -1.98545        1.36040
H          1.19894       -0.42584        2.02129
H          0.16212        0.15912       -1.75402
H         -0.50059        2.31722       -0.75122
