27
/mnt/e/work/rmlp/database/CAMD/log/success_log/ts_267_1_S-A-3_opt.log
C         -1.60525        2.25011        1.15619
C         -0.93054        2.59387       -0.13641
O         -0.98721        3.64916       -0.68608
O         -0.19429        1.62444       -0.79156
N          0.03292        0.34814       -0.25566
C          1.01812        0.40827        0.91936
O          0.67664        0.08705        2.02436
C          2.16439        1.35704        0.63245
F          2.43146        1.49800       -0.69196
C         -1.15891       -0.46229       -0.13124
C         -2.23498       -0.18082       -0.96614
C         -3.36485       -0.97610       -0.92146
C         -3.42187       -2.05830       -0.05943
C         -2.33699       -2.34826        0.74811
C         -1.19766       -1.56111        0.71563
Br         2.09560       -1.56195       -0.37976
H         -0.98121        1.66515        1.82626
H         -1.89236        3.17910        1.64226
H         -2.50889        1.67718        0.94731
H          3.06575        0.98871        1.13221
H          1.90726        2.35094        1.02658
H         -2.18795        0.64790       -1.65634
H         -4.19647       -0.74988       -1.57059
H         -4.30433       -2.67807       -0.02731
H         -2.36529       -3.19924        1.41019
H         -0.36438       -1.81132        1.34797
H          0.81860       -0.34092       -0.88571
