25
/mnt/e/work/rmlp/database/CAMD/log/success_log/ts_25_1_NO2-A-7-d_opt.log
O         -2.22429        1.07907        1.19676
N         -1.71457       -0.07492        0.74045
C         -1.58518       -0.02862       -0.62490
O         -0.93026       -1.04604       -1.29343
C         -0.03689       -1.88271       -0.76097
O          0.62238       -2.60037       -1.44892
O          0.01774       -1.87862        0.57583
S         -0.55823        1.67675       -0.72121
O         -0.23602        1.81684       -2.12778
C          0.92689        0.98375        0.03541
C          1.06738        1.00238        1.41284
C          2.20246        0.44678        1.97618
C          3.17770       -0.11459        1.16387
C          3.03130       -0.11509       -0.21413
C          1.89953        0.44226       -0.78538
O         -3.19666       -0.92157        1.32526
H         -2.46528        0.24395       -1.21834
H          0.67847       -2.51892        0.87846
H          0.29022        1.43374        2.02337
H          2.32894        0.45047        3.04818
H          4.06011       -0.55021        1.60888
H          3.79186       -0.55035       -0.84377
H          1.75869        0.46619       -1.85574
H         -3.11796        0.25612        1.66518
H         -2.91367       -1.53384        2.01067
