30
/mnt/e/work/rmlp/database/CAMD/log/success_log/ts_279_1_R-A-4_opt.log
C          0.59792        3.56013       -0.17194
O          1.12049        2.28775        0.10863
C          0.19144        1.44310        0.75547
C          0.81090        0.04593        0.85290
C          0.05120       -0.85051        1.83530
C         -1.43825       -1.02377        1.52840
C         -1.73860       -1.72313        0.26154
O         -0.25504       -1.04195       -1.08902
C          0.96207       -0.56892       -0.55466
C          1.98204       -1.71824       -0.59981
N          3.32155       -1.18040       -0.74707
Cl        -2.69213        0.22901       -0.99618
H         -0.28818        3.49221       -0.81467
H          0.32247        4.08950        0.74902
H          1.38102        4.11200       -0.68751
H         -0.02320        1.82839        1.76574
H         -0.74940        1.41770        0.19078
H          1.82616        0.18744        1.23793
H          0.14445       -0.41704        2.83319
H          0.52425       -1.83392        1.85858
H         -1.95406       -0.06606        1.57200
H         -1.87610       -1.65521        2.31602
H         -1.12771       -2.58268        0.02740
H         -2.77536       -1.87095        0.01829
H          1.35601        0.22084       -1.20959
H          1.86151       -2.37105        0.28062
H          1.76493       -2.31497       -1.48992
H          3.55996       -0.58416        0.03778
H          4.00248       -1.92974       -0.79010
H         -0.86973       -0.30669       -1.33098
