20
/mnt/e/work/rmlp/database/CAMD/log/success_log/ts_288_1_R-A-2_opt.log
C         -3.30859        0.76875        0.50159
C         -2.32900       -0.13857       -0.18096
O         -2.60710       -1.19405       -0.66837
C         -0.90327        0.47153       -0.19791
C          0.10819       -0.57790       -0.15405
C          0.83382       -1.00336        1.07861
C          2.10996       -1.52732        0.41436
O          2.08583       -0.87751       -0.85256
Cl         1.69438        1.79402       -0.06106
H         -3.09850        0.77855        1.56970
H         -3.20815        1.78541        0.13056
H         -4.32209        0.40936        0.34153
H         -0.77616        1.20513        0.59558
H         -0.86426        0.99839       -1.15596
H         -0.04952       -1.35804       -0.89151
H          0.26237       -1.75269        1.63597
H          1.03941       -0.15260        1.72390
H          3.02735       -1.30175        0.96306
H          2.06067       -2.60084        0.21829
H          2.22788        0.10435       -0.69549
