23
/mnt/e/work/rmlp/database/CAMD/log/success_log/ts_24_1_S-B-9_opt.log
C         -1.37045        1.39713        0.97169
N         -1.99792        0.34008        0.21480
C         -3.44511        0.32580        0.23165
C         -1.35882       -0.57007       -0.54319
O         -1.92264       -1.51751       -1.06034
C          0.16278       -0.44741       -0.74518
N          1.82513       -1.51612        0.10119
O          1.92134       -2.57491       -0.34895
O          0.61592        0.86377       -1.05133
C          1.45271        1.58133       -0.31960
O          1.83597        2.65425       -0.67894
O          1.80123        1.01901        0.84691
O          0.76982       -1.53217        1.55548
H         -2.06204        1.71287        1.75165
H         -0.46050        1.04260        1.45409
H         -1.14007        2.26358        0.34534
H         -3.83494        1.27430       -0.14191
H         -3.80748        0.16343        1.24857
H         -3.78956       -0.48546       -0.40587
H          0.36196       -1.05184       -1.63334
H          2.45697        1.56182        1.30426
H          0.33000       -0.87816        0.58491
H          0.33538       -2.39106        1.60546
