28
/mnt/e/work/rmlp/database/CAMD/log/success_log/ts_286_1_NO2-A-11-a_opt.log
C          2.18114       -1.80258        1.85231
C          1.31917       -1.43278        0.64723
C          1.92285       -1.94825       -0.63382
O          1.29785       -2.35408       -1.57301
C          1.31765        0.09250        0.48120
O          2.35274        0.73180        0.50131
N          0.13795        0.74753        0.32001
N          0.45749        2.07474       -1.08950
O          1.49765        1.95595       -1.56352
C         -1.14043        0.19241        0.17907
C         -2.14717        0.66087        1.02148
C         -3.43302        0.17065        0.90031
C         -3.72991       -0.77481       -0.06832
C         -2.73574       -1.22415       -0.92146
C         -1.44416       -0.74370       -0.80733
O          0.53612        3.10467        0.34357
H          3.15686       -1.32960        1.76759
H          1.70824       -1.46005        2.77005
H          2.30973       -2.88077        1.90847
H          0.29486       -1.79715        0.75434
H          3.02497       -1.88351       -0.65191
H         -1.90967        1.40212        1.76974
H         -4.20754        0.53097        1.56060
H         -4.73608       -1.15424       -0.16277
H         -2.96449       -1.95177       -1.68522
H         -0.67645       -1.08920       -1.48245
H          0.22073        1.98427        0.71897
H          1.47360        3.22539        0.54811
