12
/mnt/e/work/rmlp/database/CAMD/log/success_log/ts_34_1_E-2-a_opt.log
O          2.60298       -0.48373       -0.35691
C          1.47854       -0.48893        0.21988
N          0.94237        0.68568        0.06508
C         -0.33776        1.14873        0.48485
O         -1.36963        0.79105       -0.44942
C         -1.83264       -0.44639       -0.38311
O         -1.49517       -1.29544        0.38657
H          2.12305        0.76472       -0.58345
H          1.07162       -1.34402        0.74364
H         -0.60313        0.73906        1.47029
H         -0.33828        2.24076        0.50214
H         -2.60424       -0.57583       -1.15977
