19
/mnt/e/work/rmlp/database/CAMD/log/success_log/ts_359_1_NO2-B-3-e_opt.log
C          2.65898        1.30156       -0.30331
N          2.30165        0.02929       -0.82345
C          1.10488       -0.53924       -0.54650
C         -0.00211        0.11724        0.20499
O          0.05076        1.19298        0.76677
N         -1.14337       -0.63678        0.22257
C         -2.36013       -0.13094        0.82059
C         -3.41583       -0.00376       -0.15983
N         -4.23010        0.05973       -0.95902
O          3.06430       -1.19630        0.37961
H          2.45901        1.42381        0.76307
H          3.71301        1.47428       -0.51857
H          2.05884        2.04589       -0.83391
H          0.78598       -1.22809       -1.32807
H         -1.19989       -1.49385       -0.30364
H         -2.11712        0.85727        1.23243
H         -2.70377       -0.78689        1.63175
H          1.75717       -1.36724        0.29771
H          3.91425       -1.53348        0.71184
