22
/mnt/e/work/rmlp/database/CAMD/log/success_log/ts_305_1_S-B-1_opt.log
C          0.58449        0.86479       -0.78977
Cl         1.45899        2.76678        0.30750
C          1.81576        0.05065       -1.01161
Br         1.97357       -1.52436        0.12981
C         -0.74322        0.10913       -0.89179
O         -0.75749       -1.07898       -1.05632
C         -1.96876        1.00083       -0.80321
O         -3.16654        0.30572       -0.65386
C         -3.33479       -0.31223        0.61356
C         -4.73080       -0.90842        0.66399
N          0.25190        0.78971        1.03485
N          0.83129        0.09950        1.70136
H          0.55135        1.70494       -1.47744
H          1.78652       -0.34818       -2.02798
H          2.72176        0.63167       -0.85663
H         -1.81645        1.73724        0.00161
H         -2.04984        1.54308       -1.75273
H         -3.20606        0.44036        1.40725
H         -2.58203       -1.09837        0.75731
H         -4.84360       -1.64267       -0.12808
H         -5.47361       -0.12833        0.52264
H         -4.89228       -1.38915        1.62434
