20
/mnt/e/work/rmlp/database/CAMD/log/success_log/ts_31_2_A-E-22_opt.log
C         -2.96245        1.01419        1.23005
S         -2.51111       -0.32910        0.04481
O         -3.00033        0.00118       -1.25646
O         -3.07676       -1.47116        0.71097
C         -0.84575       -1.76339       -0.61770
C          0.30580       -1.10428       -0.94723
Br        -0.30002        1.33672       -0.21412
C          1.39325       -0.98978        0.05358
O          1.32505       -1.34592        1.19022
O          2.51732       -0.47517       -0.54439
C          3.57409       -0.02221        0.18292
O          3.59460        0.20389        1.34645
O          4.58234        0.15863       -0.66257
H         -3.98361        0.81171        1.53331
H         -2.28446        0.94219        2.07065
H         -2.85886        1.95264        0.70009
H         -0.86788       -2.29454        0.32129
H         -1.52400       -2.09106       -1.38644
H          0.51872       -0.74697       -1.94338
H          5.35128        0.52740       -0.20189
