14
/mnt/e/work/rmlp/database/CAMD/log/success_log/ts_306_2_E-2-a_opt.log
O         -1.90829        0.83585        0.32884
C         -0.98556        0.00081       -0.00975
N         -1.19462       -1.32284       -0.13409
N          0.08865        0.70306       -0.23660
C          1.39797        0.24150       -0.62168
C          2.22615       -0.21491        0.58154
H         -0.84944        1.59871        0.11693
H         -2.06624       -1.69477        0.19750
H         -0.41148       -1.94291       -0.22789
H          1.31399       -0.57803       -1.34903
H          1.90180        1.07831       -1.11275
H          3.21478       -0.53178        0.25871
H          1.74106       -1.04555        1.09086
H          2.33224        0.60330        1.28917
