14
/mnt/e/work/rmlp/database/CAMD/log/success_log/ts_349_1_S-B-3-a_opt.log
O          2.57552       -0.74941       -0.40014
C          1.49845       -0.57906        0.26511
C          1.12400        0.76850        0.23757
C         -0.31128        1.21510        0.43584
N         -1.17808        0.69027       -0.60331
C         -1.87882       -0.44490       -0.43231
O         -1.92763       -1.08666        0.58698
H          2.30672        0.57750       -0.66976
H          0.96934       -1.42600        0.68542
H          1.83676        1.42926        0.72500
H         -0.37712        2.30546        0.43137
H         -0.71139        0.83318        1.38124
H         -1.11313        1.10390       -1.51927
H         -2.44182       -0.72451       -1.34282
