28
/mnt/e/work/rmlp/database/CAMD/log/success_log/ts_3_1_NO2-C-3-e_opt.log
C         -4.46124       -0.02183       -1.26101
C         -3.44936       -0.17743       -0.13611
N         -2.10515       -0.05093       -0.66923
C         -1.02126       -0.10147        0.23932
C         -0.87928        1.02605        1.20771
O         -1.70253        1.87666        1.42123
N          0.08947       -0.75178       -0.23142
C          1.36896       -0.29160       -0.19300
C          1.64719        1.06600       -0.41328
C          2.95273        1.49602       -0.53443
C          4.00558        0.60322       -0.41748
C          3.73965       -0.74007       -0.19703
C          2.43988       -1.18650       -0.09671
O         -0.22449       -2.09861        1.05016
H         -4.34611       -0.81855       -1.99328
H         -4.31671        0.93221       -1.75995
H         -5.47139       -0.06045       -0.86302
H         -3.58703        0.61704        0.60042
H         -3.59730       -1.14802        0.36690
H         -1.94072       -0.67553       -1.45154
H          0.06470        0.96852        1.78164
H          0.82653        1.75861       -0.53317
H          3.14838        2.54294       -0.71400
H          5.02426        0.95022       -0.49822
H          4.55392       -1.44331       -0.10307
H          2.22038       -2.22571        0.09136
H         -1.20201       -1.06495        1.08460
H          0.09193       -2.97274        1.33680
