20
/mnt/e/work/rmlp/database/CAMD/log/success_log/ts_45_2_NO2-A-8-a_opt.log
O         -2.59738        1.50774        0.99994
N         -2.92938        1.42474       -0.08906
C         -1.58009        0.16094       -1.23795
S         -0.80576       -0.58269        0.17063
O         -0.09414        0.39726        0.93952
O         -1.83672       -1.34899        0.83052
C          0.50517       -1.82935       -0.35944
O          1.72688       -1.25836        0.01590
C          1.96989       -0.08550       -0.51331
O          1.43139        0.45023       -1.42857
N          3.17498        0.55434        0.18008
O          3.72118       -0.09648        1.02824
O          3.45847        1.65398       -0.20531
O         -3.99619        0.05291       -0.34167
H         -1.63220       -0.56674       -2.04269
H         -1.03319        1.03674       -1.55610
H          0.43741       -1.99247       -1.43608
H          0.36624       -2.74135        0.21365
H         -2.95826       -0.04884       -0.99239
H         -3.88488       -0.56073        0.40191
