33
/mnt/e/work/rmlp/database/CAMD/log/success_log/ts_46_2_S-C-10_opt.log
C         -0.01862       -1.53599        2.27482
C          0.55964       -1.08410        0.97269
C          1.93607       -0.86412        0.91924
C          2.55223       -0.45202       -0.24993
N          3.97493       -0.20839       -0.25317
O          4.57982       -0.39104        0.78104
O          4.47588        0.17376       -1.28797
C          1.82116       -0.27274       -1.41896
C          0.45959       -0.48641       -1.37035
C         -0.16397       -0.86748       -0.19413
S         -2.04618       -0.99307       -0.38787
O         -2.10179       -1.43284       -1.75076
O         -2.43750       -1.83556        0.70993
C         -1.90903        1.03787        0.07063
C         -1.41588        1.82644       -0.97648
C         -0.51881        2.84636       -0.72040
C         -0.10091        3.09028        0.58004
C         -0.59949        2.33221        1.63091
C         -1.49199        1.30826        1.37996
O         -3.87798       -0.23724       -0.50490
H         -1.04405       -1.86398        2.15087
H          0.57456       -2.35839        2.66981
H          0.02110       -0.72450        3.00041
H          2.54012       -1.01393        1.80245
H          2.32150        0.02386       -2.32712
H         -0.14689       -0.38078       -2.25451
H         -1.75107        1.62656       -1.98287
H         -0.13953        3.45119       -1.52991
H          0.61386        3.87497        0.77665
H         -0.28532        2.54324        2.64209
H         -1.88206        0.70821        2.18820
H         -4.58680       -0.73001       -0.08479
H         -3.08854        0.70331       -0.04011
