30
/mnt/e/work/rmlp/database/CAMD/log/success_log/ts_416_1_S-A-24_opt.log
C         -1.66950       -0.72870        2.82236
C         -2.00930       -0.16809        1.44682
C         -0.82976       -0.01114        0.60291
O          0.41109       -0.08532        1.00632
C         -0.55380        0.23570       -0.81395
C         -1.18838        1.32367       -1.66260
C         -2.65047        1.00786       -1.95567
C          0.92314        0.25479       -0.32662
C          1.62600        1.61315       -0.28062
C          0.83935        2.57459        0.45226
N          0.18876        3.30362        1.04387
C          1.80019       -0.86328       -0.87758
C          3.05786       -0.94862       -0.18471
N          4.05679       -0.97997        0.36984
Cl        -0.89326       -2.66814       -0.60538
H         -0.96459       -0.08138        3.33778
H         -1.21993       -1.71182        2.71260
H         -2.56987       -0.81950        3.42258
H         -2.49348        0.81353        1.53298
H         -2.70862       -0.82026        0.91507
H         -1.11399        2.29172       -1.16188
H         -0.63668        1.38289       -2.60350
H         -3.23764        1.01767       -1.04203
H         -3.06196        1.74904       -2.63541
H         -2.74244        0.02673       -2.41348
H          1.79186        1.97645       -1.29823
H          2.59372        1.50387        0.22054
H          1.24196       -1.80659       -0.75663
H          1.97944       -0.70163       -1.94333
H         -0.75184       -0.78490       -1.27777
