26
/mnt/e/work/rmlp/database/CAMD/log/success_log/ts_566_1_S-A-15_opt.log
C          2.53236        1.38733        0.89422
N          1.44909        1.00428        0.00356
C          0.60817        1.96107       -0.34943
N         -0.11286        2.78701       -0.68716
C          0.74026       -0.53819        0.44720
O          1.30547       -1.02337        1.38607
C         -0.70851       -0.43006        0.19510
C         -1.54411       -0.51233        1.30527
C         -2.91221       -0.39283        1.14991
C         -3.45115       -0.19189       -0.10977
C         -2.62025       -0.11665       -1.21546
C         -1.25034       -0.23099       -1.06906
O          1.44469       -1.04996       -1.05278
C          2.46248       -1.99828       -0.88123
H          3.43105        1.63210        0.32608
H          2.73230        0.52912        1.54385
H          2.25717        2.24058        1.51526
H         -1.10711       -0.67121        2.27964
H         -3.55737       -0.45470        2.01342
H         -4.51982       -0.09469       -0.23038
H         -3.04055        0.03774       -2.19764
H         -0.60602       -0.18090       -1.93192
H          1.75119        0.13792       -0.91094
H          3.38181       -1.66619       -1.36614
H          2.64470       -2.14008        0.19263
H          2.13758       -2.94515       -1.31545
