12
/mnt/e/work/rmlp/database/CAMD/log/success_log/ts_66_2_A-E-20_opt.log
C          0.67106        1.39450       -0.99994
C          0.84773        1.23833        0.40511
Br        -1.81319       -0.22212        0.06056
C          1.75827        0.23242        1.00467
O          2.62320       -0.41374        0.12811
F          1.92108       -1.36808       -0.65270
H         -0.24482        0.75846       -1.23592
H          0.37520        2.39720       -1.29592
H          1.48537        0.99377       -1.59757
H          0.27069        1.82727        1.09947
H          2.45942        0.71884        1.69935
H          1.17792       -0.49026        1.60136
