30
/mnt/e/work/rmlp/database/CAMD/log/success_log/ts_77_1_NO2-A-11-d_opt.log
C          4.66671       -0.79533       -0.94345
O          3.32051       -0.48996       -0.66832
C          2.95225       -0.77872        0.65543
C          1.51587       -0.37076        0.93769
O          0.91356       -0.78597        1.89132
C          0.95190        0.61410       -0.05589
N         -0.46816        0.83273        0.13295
N         -0.95806        2.00412        0.33234
O         -0.05217        2.94963        0.62879
C         -1.38078       -0.22366       -0.03128
C         -0.99039       -1.43857       -0.58473
C         -1.91650       -2.45641       -0.73097
C         -3.22999       -2.27732       -0.33496
C         -3.61903       -1.06649        0.21560
C         -2.70355       -0.04507        0.37079
O         -1.19776        2.98196       -1.30557
H          5.34308       -0.21025       -0.30976
H          4.87142       -1.86139       -0.79084
H          4.83294       -0.53843       -1.98709
H          3.59019       -0.22866        1.36822
H          3.06556       -1.85116        0.87869
H          1.42918        1.58923        0.12316
H          1.18880        0.30761       -1.07770
H          0.02516       -1.60615       -0.90549
H         -1.60471       -3.39669       -1.16042
H         -3.94554       -3.07686       -0.45142
H         -4.64067       -0.91941        0.53174
H         -2.99335        0.89702        0.80639
H         -0.43965        3.49626       -0.33347
H         -2.09090        3.32497       -1.30826
