36
/mnt/e/work/rmlp/database/CAMD/log/success_log/ts_89_1_S-C-1_opt.log
C          3.00309       -1.05379        2.34357
C          1.81271       -0.34862        1.71223
N          2.08396        0.02669        0.31713
C          2.77444        1.32670        0.19133
N          2.19235        2.29334        1.09163
C          0.66639       -0.10980       -0.65137
C         -0.12934        1.05262       -0.63934
C         -1.46949        1.04214       -0.31822
C         -2.21592        2.33873       -0.34050
C         -2.07568       -0.18429        0.01203
C         -3.45923       -0.38264        0.41605
O         -3.94538       -1.46348        0.68592
O         -4.22411        0.73320        0.50126
C         -1.29960       -1.35141       -0.08262
C          0.03265       -1.35845       -0.39921
C          0.78859       -2.65153       -0.53994
Cl         1.77305       -0.18591       -2.32981
H          3.86928       -0.39800        2.38353
H          2.75569       -1.34838        3.35935
H          3.26808       -1.95024        1.78554
H          0.93228       -0.99512        1.72138
H          1.57899        0.56742        2.25535
H          3.82617        1.19860        0.47512
H          2.73373        1.59668       -0.87467
H          2.74171        3.14291        1.09818
H          1.24322        2.51913        0.81193
H          0.31470        1.97913       -0.97368
H         -1.57117        3.14968       -0.67297
H         -3.07023        2.27245       -1.00979
H         -2.59927        2.57310        0.65052
H         -5.11362        0.46461        0.77711
H         -1.80023       -2.28846        0.11177
H          1.43572       -2.61339       -1.41420
H          1.40564       -2.87011        0.33297
H          0.08939       -3.47356       -0.66487
H          2.66811       -0.68194       -0.12861
