28
/mnt/e/work/rmlp/database/CAMD/log/success_log/ts_83_1_NO2-A-2-a_opt.log
N          5.09741       -1.77382       -0.67005
C          4.49495       -0.98826       -0.08951
N          3.82153       -0.12068        0.63754
C          2.49847       -0.47265        1.11324
C          1.42710       -0.31581        0.03934
N          1.31839        1.77435       -0.00825
O          0.28797        2.19841       -0.31512
C          0.03080       -0.34831        0.56792
O         -0.27730       -0.28894        1.72716
O         -0.82740       -0.40584       -0.47009
C         -2.20445       -0.34049       -0.26105
C         -2.77927        0.58716        0.59269
C         -4.15760        0.62369        0.71532
C         -4.95106       -0.24804       -0.00986
C         -4.36626       -1.16423       -0.86848
C         -2.99080       -1.21586       -0.99696
O          2.38245        1.58792       -1.44054
H          3.94696        0.85148        0.38566
H          2.52922       -1.50764        1.47010
H          2.25220        0.16900        1.96268
H          1.50364       -1.06940       -0.75758
H         -2.15933        1.26863        1.15262
H         -4.61027        1.34228        1.38140
H         -6.02514       -0.21289        0.09166
H         -4.98095       -1.84428       -1.43853
H         -2.51631       -1.92360       -1.65889
H          1.96781        0.50982       -0.89480
H          1.89387        1.82213       -2.23604
