39
/mnt/e/work/rmlp/database/CAMD/log/success_log/ts_88_1_A-E-7_opt.log
C         -2.09799       -0.84246       -0.94263
C         -1.42469       -1.05337        0.29599
N          0.22983        0.14169       -0.81497
C          0.99364       -0.95260       -1.08176
O          0.67602       -1.73903       -1.96203
C          2.14435       -1.23700       -0.16803
C          3.19198       -2.00732       -0.66373
C          4.28671       -2.28795        0.13153
C          4.33648       -1.81441        1.43251
C          3.28654       -1.06464        1.93738
C          2.19355       -0.77320        1.14240
C          0.75413        1.35583       -0.46012
C          2.02511        1.77940       -0.87865
C          2.48277        3.04072       -0.56148
C          1.69403        3.90883        0.17740
C          0.43208        3.50690        0.58960
C         -0.03859        2.25092        0.27270
N         -3.15936        0.12748       -1.04632
C         -4.46140       -0.33042       -0.74498
N         -4.72166       -0.48483        0.74542
O         -3.95849        0.08746        1.48533
O         -5.67483       -1.14282        1.07228
H         -1.15096       -0.31812       -1.48248
H         -2.31331       -1.73159       -1.53191
H         -0.83695       -1.93848        0.45219
H         -1.53560       -0.36733        1.11720
H          3.12902       -2.37368       -1.67775
H          5.10103       -2.87877       -0.26147
H          5.19086       -2.03407        2.05585
H          3.31902       -0.70533        2.95553
H          1.37427       -0.19486        1.54480
H          2.63387        1.10771       -1.46708
H          3.46313        3.35118       -0.89248
H          2.05862        4.89339        0.42851
H         -0.18703        4.18068        1.16405
H         -1.01673        1.93823        0.60612
H         -2.93114        0.97747       -0.54181
H         -5.21357        0.38719       -1.09220
H         -4.65983       -1.30415       -1.19938
