25
/mnt/e/work/rmlp/database/CAMD/log/success_log/ts_83_1_A-I-1_opt.log
N          2.96173        0.02620       -0.62176
C          4.40460        0.06127       -0.56706
C          2.22125        0.01455        0.45374
O          2.38543        0.02929        1.64620
C          0.73381       -0.02481       -0.23477
C         -0.03363        1.16905       -0.17689
C         -1.41109        1.16582       -0.09269
C         -2.17347        2.45259       -0.03850
C         -2.10238       -0.05609       -0.04789
C         -3.59009       -0.10415        0.05317
C         -1.35137       -1.23254       -0.08674
F         -2.00364       -2.41479       -0.04083
C          0.01931       -1.24885       -0.16386
H          1.57210       -0.01209       -1.16304
H          4.76636        0.95462       -1.08102
H          4.80879       -0.81924       -1.07128
H          4.75878        0.07527        0.46509
H          0.49464        2.11181       -0.19386
H         -2.87106        2.51992       -0.87226
H         -2.75092        2.51491        0.88263
H         -1.49730        3.30141       -0.08116
H         -3.94578       -1.13040        0.06566
H         -4.04408        0.41578       -0.78999
H         -3.92237        0.39294        0.96414
H          0.54629       -2.19054       -0.16581
