36
/mnt/e/work/rmlp/database/CAMD/log/success_log/ts_91_3_S-C-10_opt.log
C          3.75843       -0.41085       -1.33294
C          2.68425       -0.47030       -0.28919
C          3.00326       -0.26042        1.04449
C          2.03719       -0.31175        2.01914
C          0.69570       -0.56422        1.70034
N         -0.23021       -0.50541        2.70520
C          0.38438       -0.79175        0.35458
S         -1.39054       -1.15138       -0.13304
O         -1.22918       -2.27807       -1.01107
O         -2.11356       -1.36059        1.10181
C         -1.44304        0.96451       -0.43520
C         -0.75271        1.54238       -1.50321
C         -0.02452        2.70376       -1.31981
C          0.01885        3.30589       -0.07197
C         -0.69798        2.76662        0.98564
C         -1.42291        1.60389        0.80669
C          1.35448       -0.74040       -0.63944
C          1.06358       -0.97428       -2.08999
O         -3.12693       -0.66038       -1.10133
H          3.54968        0.37019       -2.06334
H          3.83260       -1.35563       -1.86976
H          4.72022       -0.20123       -0.87218
H          4.02675       -0.05449        1.32235
H          2.29408       -0.14471        3.05492
H          0.12501       -0.65465        3.63552
H         -1.12966       -0.91966        2.49183
H         -0.80664        1.08567       -2.47932
H          0.51006        3.14333       -2.14921
H          0.60525        4.20083        0.07440
H         -0.68525        3.25177        1.94999
H         -1.97099        1.17222        1.62948
H          0.01751       -1.18056       -2.26811
H          1.37941       -0.11317       -2.67780
H          1.63528       -1.83540       -2.43491
H         -3.92023       -1.00288       -0.68481
H         -2.51941        0.41217       -0.75674
